! B3LYP/G VERYTIGHTOPT FREQ Def2-TZVP(-f) Def2-TZVP/C Def2/J RIJCOSX TightSCF CPCM(Water) AllPop SOSCF
%pal nprocs 128 end


* xyz 1 1 
  C          -3.40789983017556     -0.90355398188559      1.60282578490378
  C          -3.19871309421709     -1.83448671693778      2.63084900392722
  C          -1.98521768354698     -1.90509083465546      3.28119915635923
  C          -2.42363785870259      0.01465317568872      1.28979428863222
  C          -1.19979102862205      0.05523872250801      2.02067295409906
  O          -2.47664663857886      0.82996046486653      0.18618348953916
  C          -0.95401638717457     -1.00438726644353      2.95315580620175
  C           0.36585953468290     -1.21458123186408      3.47093566702759
  C           1.41587922688844     -0.48839708759458      3.01693470091793
  C          -0.13063847729193      0.99256355610938      1.79150125878023
  C           1.19754524997019      0.63165382492572      2.15211669847862
  N          -0.30631732443024      2.25610051824666      1.23142513853946
  C           0.75090118830995      2.94913088209030      0.73703281213103
  C           2.04933569421665      2.50073589026807      0.86972217251533
  C           2.27403876513763      1.38760842272594      1.66032534236263
  C          -3.66956469212635      1.08641948473604     -0.49838513346399
  O          -4.73070189426090      1.20921167923733      0.08045799013310
  N          -3.45090911651832      1.21565907625473     -1.81790515398497
  C          -2.17306801161160      0.98991069901240     -2.49120125132686
  C          -4.57023899952387      1.56611215316529     -2.68881998622943
  H          -4.80406014878987      0.72966031082052     -3.35339776688596
  H          -4.30340898996994      2.43253300854230     -3.29833305395192
  H          -5.44261946738825      1.80199090638010     -2.08738851415126
  H          -1.84752369710853      1.91047337391043     -2.98254409954669
  H          -2.29619039299969      0.21448975418537     -3.25193442377395
  H          -1.41538345875711      0.67633530278157     -1.78272148828788
  H          -1.79317329292149     -2.67895196944273      4.01576330902378
  H          -4.33100602465274     -0.92043808845204      1.04289753329171
  H          -3.98852574320945     -2.53765712397662      2.87075852794070
  H           0.51719498727402     -2.02724779593931      4.17272418975957
  H           2.43304782068234     -0.71396007171259      3.31601506805264
  H           0.52717135961656      3.90274176360886      0.28140418088020
  H           2.85822981295547      3.07476246724939      0.43857282459091
  H           3.28551093388310      1.08181679650062      1.90441026015648
  P          -1.73387751110939      3.30354919019497      1.61620304318988
  O          -2.70277519372350      2.61970101305722      2.48859628071554
  O          -2.08771326660328      3.74957211587656      0.14842036348208
  O          -1.03954343020234      4.58796998778441      2.23296381890053
  C          -2.92456628757802      4.93350608909519     -0.15372638105650
  C          -0.99680184545984      4.90339264731992      3.67406178606294
  C          -2.73253958104748      5.26394036860151     -1.61334426864663
  H          -2.60329449491593      5.74674775073252      0.49608107323356
  H          -3.95413252108813      4.66253731390887      0.07861486457058
  H          -1.69243663815870      5.52039826881124     -1.82436708043946
  H          -3.35724100833088      6.12446241003280     -1.86667756332265
  H          -3.02898849188971      4.42704785852046     -2.24799197271646
  C           0.31275919201997      4.46065723674921      4.28749854434244
  H          -1.85780030857926      4.43692266195761      4.15086411769254
  H          -1.11604519826817      5.98477138600259      3.70308832787970
  H           0.33998535339164      4.78295874261152      5.33203299634662
  H           1.16138476131828      4.91198618694323      3.76948026484970
  H           0.42185412187820      3.37392872294585      4.26600449846350
*
