! B3LYP/G OPT FREQ 6-311G* CPCM(Water)

* xyz 1 1 
C  -3.46274176772867781082 -0.58988987505345713558 1.89027033186135495768
C  -3.29877490556649766162 -1.35240377949941237290 3.04774507305637154531
C  -2.07480477382806416387 -1.43913504349931686832 3.66381632149985669855
C  -2.41950696906223683413 0.16913205229834371579 1.40973132700835712683
C  -1.17878631404561140528 0.19084917945008195161 2.09361477541689655624
O  -2.42197557607644675670 0.81124563889723488863 0.19481085924993735148
C  -0.98474047462484093352 -0.70538313608211122840 3.17718483664784034914
C  0.32789086779730047816 -0.89680215699724552536 3.69991288472457213743
C  1.40464898581094432828 -0.31661999615479352599 3.11965525027681334080
C  -0.07910192547335159752 0.99186912149258565918 1.67480566789078544332
C  1.23672336969571983190 0.64165065372802132515 2.07963096813223513593
N  -0.24713363031712209938 2.10383632293848688022 0.90826746791211510068
C  0.79614358601545776040 2.68921763368912625225 0.30408937676285685558
C  2.08801575045132059572 2.24946947416126441510 0.50155595363229932282
C  2.31814503408450800492 1.28081335259841821994 1.46286301276913999203
C  -3.56903152592129035980 1.09525310707295542301 -0.50788288233246903225
O  -4.65382996398340864630 1.26427244118661485928 0.02693309107293151428
N  -3.32727203954939732000 1.19803590388276259837 -1.81157651358577553857
C  -2.01779177910548224162 1.02779600068975174310 -2.40723855148740994991
C  -4.38264947562994056085 1.60815447908835329471 -2.71316898313482202099
H  -4.57308792584613321708 0.81899243239738650502 -3.44094432301022390419
H  -4.08926318673087507705 2.51691488601792201507 -3.23712239435966164791
H  -5.28932950111514799119 1.79369302167941491177 -2.14155715790882794636
H  -1.51244693295551857481 1.99076976065274369176 -2.48978094437134878092
H  -2.14861809041059359515 0.60232374155669199389 -3.39996306487171029431
H  -1.41267540898043275632 0.35536974656011977025 -1.80585930321322396530
H  -1.93422447836222000106 -2.09039316557842536071 4.51137503689351593295
H  -4.40724308892219429623 -0.59591693261921818703 1.37047426840585284680
H  -4.14042820737767858219 -1.91316318151591824304 3.42168943210900788898
H  0.44354910340685882453 -1.57496747577586582167 4.53029873296770535518
H  2.40672429291412504071 -0.54184923887372082874 3.44632713302206994399
H  0.55921047762388242930 3.54727860289397511906 -0.30614557237067474560
H  2.90014718222503953271 2.71688866740494638918 -0.02958769905421854141
H  3.32327043389402421170 1.01406258424521666939 1.75097846535598433704
P  -1.62192205398968947172 3.17889415315249124205 1.16684720274546327445
O  -2.65959618708554890176 2.74348257280786533840 2.10324253791208226616
O  -1.95232406706364103322 3.51574557220321270989 -0.32914216187382150380
O  -0.83246871213499462616 4.46433715476232606534 1.66760309163328002136
C  -3.10242637636753171293 4.30056094309205594328 -0.68951641016715869981
C  -0.76739226741679067434 4.79657170087193218677 3.05791212391063904619
C  -3.08159041704939173911 5.68408638123587550695 -0.07273238138461346480
H  -4.00926007955165175645 3.76705707923410493265 -0.38728553149304767445
H  -3.05468136117128441498 4.35660932545571277785 -1.77832757072070912763
H  -3.19688246820306343210 5.61558830740583658780 1.00782292897713032787
H  -3.90612837692068870510 6.26596022251067896747 -0.47449994685761964774
H  -2.14542993579420615546 6.18796403066178868357 -0.29872111461963557488
C  0.21298387983580657767 3.90858329072779531188 3.80027781688539523230
H  -1.76740373161518116163 4.70438687800179700105 3.49183599629759466865
H  -0.45417218779127832562 5.84175559094468965782 3.07866195927823405043
H  0.31414935845419900140 4.26318085811130309537 4.82167193132438498537
H  1.18716768691206819852 3.93399267727115597992 3.31903909489874138217
H  -0.15794387266060594399 2.88493845467244369729 3.82295755647502932817
*
