35
Coordinates from ORCA-job HBQ-H E -878.340810054716
  C          -3.07401497638880     -0.66404023417599     -0.03366282759601
  C          -2.65957016736007     -1.73919567116415     -0.80810584556572
  C          -1.33607245407496     -1.81420451559238     -1.18171153370487
  C          -2.17036681467544      0.34324425751802      0.35716131370293
  C          -0.79699162146703      0.30308685739750      0.00662176951589
  O          -2.60424699430570      1.34107852868061      1.16129433963073
  C          -0.39297884118062     -0.81422087633110     -0.78673326483162
  C           0.93732125508045     -0.93940749121438     -1.19967845770845
  C           1.87061402226376      0.01140584560732     -0.83577283540934
  C           0.18595089167095      1.27422287340730      0.36739888591829
  C           1.52055789449713      1.13640529586009     -0.05048945802961
  N          -0.12437677467805      2.38908565093826      1.13189605230942
  C           0.81378736704374      3.32944857700718      1.48271859650874
  C           2.11430188991064      3.20312567841341      1.08273091403713
  C           2.49847592230589      2.10373535968534      0.30476015420841
  C          -3.88336727494889      1.91743155185355      0.95084582985063
  O          -4.39922806320424      1.88680989472151     -0.14574459900176
  N          -4.33220136004967      2.48629880038209      2.06703507298341
  C          -5.56124001015490      3.27280541761890      2.01583108479428
  C          -3.65730118647535      2.44542032644262      3.36277161430562
  H          -2.88409989624054      1.68660147206916      3.37208012131543
  H          -4.39681981645113      2.20932152134613      4.12801473369048
  H          -3.21795528209738      3.41983861332887      3.58506351513741
  H          -5.95171090893305      3.27675726849679      1.00420125920416
  H          -5.34893269977505      4.29551143769251      2.33199133679933
  H          -6.29838905827781      2.83878378364068      2.69282390093791
  H          -0.97560099582974     -2.64060560813007     -1.77917432242411
  H          -4.09713308419007     -0.59793024681700      0.30358828120923
  H          -3.36421832979886     -2.50559844954738     -1.09603122115632
  H           1.22735546771166     -1.78734248089894     -1.80469580296324
  H           2.90019855079415     -0.09408727502902     -1.15235526750808
  H           0.44601293562020      4.14971746260008      2.07887230728654
  H           2.82810748143068      3.96055497964998      1.37271359232980
  H           3.51542954016825      1.97780952038905     -0.03474733456702
  H          -1.07022660794008      2.50891187415339      1.45029809479033
