35
Coordinates from ORCA-job HBQ-H E -878.340715520988
  C      -3.075743     -0.637511     -0.039281
  C      -2.664864     -1.723916     -0.800713
  C      -1.340308     -1.810266     -1.169233
  C      -2.168897      0.371703      0.345899
  C      -0.790138      0.319057      0.000899
  O      -2.602594      1.380365      1.138239
  C      -0.391268     -0.810955     -0.780177
  C       0.941254     -0.952466     -1.185877
  C       1.883381     -0.008896     -0.825937
  C       0.204373      1.285475      0.356506
  C       1.541484      1.128155     -0.052075
  N      -0.095025      2.414705      1.107972
  C       0.853169      3.348736      1.453257
  C       2.155069      3.201484      1.063837
  C       2.529803      2.088197      0.300414
  C      -3.894949      1.944426      0.943419
  O      -4.407217      1.933433     -0.154825
  N      -4.355671      2.480459      2.072180
  C      -5.598993      3.248907      2.033113
  C      -3.690235      2.420282      3.373752
  H      -2.889112      1.691060      3.367130
  H      -4.426450      2.131671      4.124322
  H      -3.290053      3.402268      3.633306
  H      -5.994067      3.257711      1.023368
  H      -5.403274      4.271646      2.359807
  H      -6.326485      2.795612      2.707849
  H      -0.982321     -2.645240     -1.756737
  H      -4.100505     -0.564037      0.292501
  H      -3.373480     -2.489175     -1.082744
  H       1.226723     -1.808436     -1.782260
  H       2.913294     -0.129801     -1.137020
  H       0.491820      4.181567      2.036180
  H       2.876699      3.953278      1.349644
  H       3.547715      1.946183     -0.030553
  H      -1.042059      2.555101      1.415648
35
Coordinates from ORCA-job HBQ-H E -878.340798325970
  C      -3.078079     -0.646991     -0.044810
  C      -2.664586     -1.728767     -0.810650
  C      -1.339595     -1.811254     -1.178018
  C      -2.172237      0.359057      0.345104
  C      -0.796665      0.310329      0.001663
  O      -2.603046      1.366789      1.135830
  C      -0.393973     -0.812523     -0.783783
  C       0.938426     -0.946030     -1.188967
  C       1.874736      0.000974     -0.823905
  C       0.189340      1.277560      0.364247
  C       1.526036      1.130879     -0.044478
  N      -0.119414      2.396939      1.123947
  C       0.821617      3.333983      1.476365
  C       2.124144      3.198872      1.085272
  C       2.506993      2.094192      0.314116
  C      -3.894627      1.925723      0.941370
  O      -4.420377      1.891125     -0.149868
  N      -4.336890      2.483773      2.064503
  C      -5.579255      3.251282      2.032627
  C      -3.644525      2.449524      3.350799
  H      -2.842406      1.721182      3.338860
  H      -4.364021      2.174362      4.122201
  H      -3.240205      3.436900      3.581545
  H      -5.991392      3.240569      1.029746
  H      -5.376775      4.279782      2.336143
  H      -6.294483      2.811014      2.728678
  H      -0.979561     -2.641975     -1.769690
  H      -4.103345     -0.574288      0.284936
  H      -3.371591     -2.493357     -1.097607
  H       1.227972     -1.797651     -1.789022
  H       2.905320     -0.111903     -1.134621
  H       0.454529      4.158966      2.066396
  H       2.840413      3.953349      1.376804
  H       3.525595      1.961242     -0.017715
  H      -1.067002      2.527152      1.433791
35
Coordinates from ORCA-job HBQ-H E -878.340802325550
  C      -3.077250     -0.647933     -0.043963
  C      -2.663212     -1.729225     -0.809987
  C      -1.338442     -1.811394     -1.177481
  C      -2.171908      0.358702      0.345091
  C      -0.796121      0.310040      0.001662
  O      -2.602505      1.364594      1.138469
  C      -0.393154     -0.812948     -0.783231
  C       0.939068     -0.946773     -1.188034
  C       1.875057      0.000623     -0.823528
  C       0.189546      1.277913      0.363047
  C       1.526125      1.131079     -0.045676
  N      -0.119425      2.398365      1.120270
  C       0.821283      3.335887      1.471454
  C       2.123847      3.200366      1.080964
  C       2.506923      2.094817      0.311414
  C      -3.891554      1.928392      0.942945
  O      -4.413902      1.900510     -0.150240
  N      -4.336898      2.483791      2.066715
  C      -5.576005      3.255589      2.031363
  C      -3.651988      2.442339      3.357056
  H      -2.854216      1.709632      3.348181
  H      -4.377446      2.169689      4.123760
  H      -3.243258      3.426952      3.592098
  H      -5.982214      3.250620      1.025957
  H      -5.371382      4.282000      2.340513
  H      -6.296674      2.814780      2.721449
  H      -0.978237     -2.642329     -1.768735
  H      -4.101849     -0.576614      0.287295
  H      -3.369697     -2.494534     -1.096265
  H       1.228567     -1.799079     -1.787132
  H       2.905763     -0.112051     -1.133886
  H       0.453903      4.161627      2.060252
  H       2.839926      3.955441      1.371443
  H       3.525478      1.961560     -0.020442
  H      -1.067076      2.528353      1.429014
35
Coordinates from ORCA-job HBQ-H E -878.340806883933
  C      -3.077024     -0.650220     -0.043420
  C      -2.662523     -1.730013     -0.811231
  C      -1.337841     -1.811298     -1.179020
  C      -2.171906      0.356015      0.346776
  C      -0.796142      0.308679      0.002492
  O      -2.603239      1.360349      1.141919
  C      -0.392875     -0.813161     -0.783927
  C       0.939054     -0.945804     -1.189676
  C       1.874495      0.002131     -0.824996
  C       0.189004      1.277058      0.364054
  C       1.525320      1.131595     -0.046153
  N      -0.119985      2.396446      1.122459
  C       0.820323      3.334239      1.473666
  C       2.122533      3.200259      1.081567
  C       2.505720      2.095846      0.310507
  C      -3.890883      1.925614      0.944906
  O      -4.413635      1.895242     -0.148153
  N      -4.336254      2.484331      2.067255
  C      -5.574407      3.257278      2.029312
  C      -3.652023      2.445403      3.358121
  H      -2.856568      1.710170      3.352312
  H      -4.378726      2.177948      4.125447
  H      -3.240225      3.429641      3.589500
  H      -5.979195      3.251216      1.023334
  H      -5.368981      4.283947      2.337160
  H      -6.296487      2.818336      2.719151
  H      -0.977636     -2.641321     -1.771575
  H      -4.101498     -0.579871      0.288457
  H      -3.368671     -2.495283     -1.098525
  H       1.228518     -1.797554     -1.789586
  H       2.905157     -0.109175     -1.136072
  H       0.452931      4.158913      2.063984
  H       2.838279      3.955669      1.372063
  H       3.523967      1.963750     -0.022771
  H      -1.067510      2.524402      1.432472
35
Coordinates from ORCA-job HBQ-H E -878.340806427521
  C      -3.076642     -0.657912     -0.042532
  C      -2.660494     -1.734643     -0.813759
  C      -1.335941     -1.812907     -1.182477
  C      -2.172798      0.348633      0.349478
  C      -0.797300      0.305069      0.003481
  O      -2.605711      1.349345      1.149003
  C      -0.392380     -0.814311     -0.785838
  C       0.939285     -0.943422     -1.193243
  C       1.872830      0.006314     -0.827856
  C       0.185903      1.275191      0.365840
  C       1.521994      1.133523     -0.046818
  N      -0.124417      2.392218      1.126801
  C       0.814296      3.331206      1.478781
  C       2.116088      3.201318      1.083979
  C       2.500709      2.099579      0.309794
  C      -3.889639      1.919212      0.948545
  O      -4.412423      1.887111     -0.144726
  N      -4.333227      2.485731      2.067929
  C      -5.567061      3.265082      2.025319
  C      -3.649534      2.449566      3.359235
  H      -2.861537      1.706201      3.359025
  H      -4.379135      2.195278      4.128195
  H      -3.227710      3.431324      3.583146
  H      -5.969129      3.259000      1.018261
  H      -5.356832      4.291344      2.331387
  H      -6.293424      2.831746      2.714255
  H      -0.975030     -2.641026     -1.777314
  H      -4.100780     -0.590453      0.290963
  H      -3.365316     -2.500570     -1.102724
  H       1.229578     -1.793730     -1.794796
  H       2.903585     -0.101562     -1.139964
  H       0.446055      4.153369      2.072087
  H       2.830444      3.957862      1.374996
  H       3.518608      1.970685     -0.025835
  H      -1.071845      2.515408      1.439194
35
Coordinates from ORCA-job HBQ-H E -878.340808147341
  C      -3.076231     -0.660201     -0.040803
  C      -2.660189     -1.736080     -0.813338
  C      -1.335796     -1.813448     -1.182901
  C      -2.172448      0.346247      0.351679
  C      -0.797410      0.304003      0.004448
  O      -2.605790      1.345588      1.153260
  C      -0.392399     -0.814630     -0.786162
  C       0.939015     -0.942538     -1.194839
  C       1.872235      0.007697     -0.829579
  C       0.185420      1.274701      0.366551
  C       1.521240      1.134260     -0.047536
  N      -0.125108      2.391277      1.128212
  C       0.813282      3.330757      1.479974
  C       2.114786      3.202039      1.083829
  C       2.499553      2.100998      0.308639
  C      -3.887321      1.918649      0.949538
  O      -4.409159      1.885719     -0.144238
  N      -4.332237      2.486356      2.067892
  C      -5.564824      3.267646      2.022816
  C      -3.650736      2.449305      3.360385
  H      -2.866637      1.701737      3.362879
  H      -4.382957      2.200202      4.128523
  H      -3.224129      3.429221      3.583308
  H      -5.963864      3.263894      1.014552
  H      -5.353965      4.293088      2.331160
  H      -6.294068      2.834481      2.708815
  H      -0.974994     -2.640967     -1.778614
  H      -4.100174     -0.593307      0.293510
  H      -3.364838     -2.501998     -1.102720
  H       1.229265     -1.792196     -1.797316
  H       2.902811     -0.099136     -1.142599
  H       0.445024      4.152311      2.074094
  H       2.828800      3.958992      1.374583
  H       3.517192      1.973133     -0.028133
  H      -1.072279      2.512982      1.441940
35
Coordinates from ORCA-job HBQ-H E -878.340809675024
  C      -3.075466     -0.662481     -0.038566
  C      -2.659832     -1.737743     -0.812228
  C      -1.335706     -1.813952     -1.183163
  C      -2.171827      0.344134      0.353913
  C      -0.797449      0.303248      0.005264
  O      -2.605682      1.342347      1.157121
  C      -0.392553     -0.814609     -0.786746
  C       0.938504     -0.941149     -1.197070
  C       1.871577      0.009383     -0.832001
  C       0.185204      1.274309      0.367062
  C       1.520651      1.135139     -0.048472
  N      -0.125463      2.390198      1.129886
  C       0.812696      3.330078      1.481590
  C       2.113882      3.202490      1.084068
  C       2.498637      2.102283      0.307617
  C      -3.886103      1.916656      0.950750
  O      -4.406210      1.883845     -0.143837
  N      -4.331833      2.486363      2.067820
  C      -5.562759      3.270221      2.019986
  C      -3.652328      2.449075      3.361371
  H      -2.872526      1.697016      3.366975
  H      -4.387135      2.205881      4.128934
  H      -3.220551      3.427039      3.582877
  H      -5.959062      3.268342      1.010636
  H      -5.350731      4.294921      2.329901
  H      -6.294911      2.837987      2.703475
  H      -0.974948     -2.640846     -1.779751
  H      -4.099195     -0.596005      0.296645
  H      -3.364367     -2.503738     -1.101590
  H       1.228738     -1.789938     -1.800778
  H       2.901829     -0.096606     -1.146298
  H       0.444489      4.150989      2.076600
  H       2.827671      3.959665      1.374756
  H       3.516041      1.975391     -0.030182
  H      -1.072212      2.510847      1.445246
35
Coordinates from ORCA-job HBQ-H E -878.340805511637
  C      -3.074079     -0.664681     -0.033999
  C      -2.659453     -1.739623     -0.808657
  C      -1.335925     -1.814382     -1.182182
  C      -2.170527      0.342547      0.357224
  C      -0.797177      0.302846      0.006564
  O      -2.604616      1.339950      1.161914
  C      -0.392952     -0.814288     -0.786992
  C       0.937401     -0.939296     -1.199913
  C       1.870572      0.011566     -0.835797
  C       0.185603      1.274141      0.367444
  C       1.520288      1.136448     -0.050399
  N      -0.124848      2.389047      1.131938
  C       0.813245      3.329400      1.483028
  C       2.113803      3.203176      1.083118
  C       2.498089      2.103933      0.305001
  C      -3.883364      1.916631      0.951301
  O      -4.399603      1.885730     -0.145130
  N      -4.331830      2.486401      2.067219
  C      -5.560595      3.273382      2.015680
  C      -3.656845      2.446038      3.362957
  H      -2.883371      1.687490      3.372389
  H      -4.396250      2.209831      4.128278
  H      -3.217835      3.420644      3.585027
  H      -5.951443      3.276562      1.004201
  H      -5.347812      4.296300      2.330813
  H      -6.297674      2.840319      2.693340
  H      -0.975376     -2.640722     -1.779662
  H      -4.097238     -0.598717      0.303125
  H      -3.363967     -2.506030     -1.096882
  H       1.227430     -1.787138     -1.805055
  H       2.900225     -0.093704     -1.152237
  H       0.445407      4.149578      2.079252
  H       2.827527      3.960604      1.373291
  H       3.515054      1.978149     -0.034516
  H      -1.070794      2.508649      1.450127
35
Coordinates from ORCA-job HBQ-H E -878.340810054716
  C      -3.074015     -0.664040     -0.033663
  C      -2.659570     -1.739196     -0.808106
  C      -1.336072     -1.814205     -1.181712
  C      -2.170367      0.343244      0.357161
  C      -0.796992      0.303087      0.006622
  O      -2.604247      1.341079      1.161294
  C      -0.392979     -0.814221     -0.786733
  C       0.937321     -0.939407     -1.199678
  C       1.870614      0.011406     -0.835773
  C       0.185951      1.274223      0.367399
  C       1.520558      1.136405     -0.050489
  N      -0.124377      2.389086      1.131896
  C       0.813787      3.329449      1.482719
  C       2.114302      3.203126      1.082731
  C       2.498476      2.103735      0.304760
  C      -3.883367      1.917432      0.950846
  O      -4.399228      1.886810     -0.145745
  N      -4.332201      2.486299      2.067035
  C      -5.561240      3.272805      2.015831
  C      -3.657301      2.445420      3.362772
  H      -2.884100      1.686601      3.372080
  H      -4.396820      2.209322      4.128015
  H      -3.217955      3.419839      3.585064
  H      -5.951711      3.276757      1.004201
  H      -5.348933      4.295511      2.331991
  H      -6.298389      2.838784      2.692824
  H      -0.975601     -2.640606     -1.779174
  H      -4.097133     -0.597930      0.303588
  H      -3.364218     -2.505598     -1.096031
  H       1.227355     -1.787342     -1.804696
  H       2.900199     -0.094087     -1.152355
  H       0.446013      4.149717      2.078872
  H       2.828107      3.960555      1.372714
  H       3.515430      1.977810     -0.034747
  H      -1.070227      2.508912      1.450298
