
                                 *****************
                                 * O   R   C   A *
                                 *****************

                                            #,                                       
                                            ###                                      
                                            ####                                     
                                            #####                                    
                                            ######                                   
                                           ########,                                 
                                     ,,################,,,,,                         
                               ,,#################################,,                 
                          ,,##########################################,,             
                       ,#########################################, ''#####,          
                    ,#############################################,,   '####,        
                  ,##################################################,,,,####,       
                ,###########''''           ''''###############################       
              ,#####''   ,,,,##########,,,,          '''####'''          '####       
            ,##' ,,,,###########################,,,                        '##       
           ' ,,###''''                  '''############,,,                           
         ,,##''                                '''############,,,,        ,,,,,,###''
      ,#''                                            '''#######################'''  
     '                                                          ''''####''''         
             ,#######,   #######,   ,#######,      ##                                
            ,#'     '#,  ##    ##  ,#'     '#,    #''#        ,####,   ,####,        
            ##       ##  ##   ,#'  ##            #'  '#       #'       #'  '#        
            ##       ##  #######   ##           ,######,      #####,   #    #        
            '#,     ,#'  ##    ##  '#,     ,#' ,#      #,     #,   #   #,  ,#        
             '#######'   ##     ##  '#######'  #'      '#     '####' # '####'        



                #########################################################
                #                        -***-                          #
                #          Department of theory and spectroscopy        #
                #                                                       #
                #                      Frank Neese                      #
                #                                                       #
                #     Directorship, Architecture, Infrastructure        #
                #                    SHARK, DRIVERS                     #
                #        Core code/Algorithms in most modules           #
                #                                                       #
                #        Max Planck Institute fuer Kohlenforschung      #
                #                Kaiser Wilhelm Platz 1                 #
                #                 D-45470 Muelheim/Ruhr                 #
                #                      Germany                          #
                #                                                       #
                #                  All rights reserved                  #
                #                        -***-                          #
                #########################################################


                         Program Version 6.0.1  -  RELEASE   -


 With contributions from (in alphabetic order):
[Max-Planck-Institut fuer Kohlenforschung]                               
  Daniel Aravena         : Magnetic Suceptibility                        
  Michael Atanasov       : Ab Initio Ligand Field Theory (pilot matlab implementation)
  Alexander A. Auer      : GIAO ZORA, VPT2 properties, NMR spectrum      
  Ute Becker             : All parallelization in ORCA, NUMFREQ, NUMCALC 
  Giovanni Bistoni       : ED, misc. LED, open-shell LED, HFLD           
  Martin Brehm           : Molecular dynamics                            
  Dmytro Bykov           : pre 5.0 version of the SCF Hessian            
  Marcos Casanova-Páez   : Triplet and SCS-CIS(D). UHF-(DLPNO)-IP/EA/STEOM-CCSD. UHF-CVS-IP/STEOM-CCSD   
  Vijay G. Chilkuri      : MRCI spin determinant printing, contributions to CSF-ICE 
  Pauline Colinet        : FMM embedding                                 
  Dipayan Datta          : RHF DLPNO-CCSD density                        
  Achintya Kumar Dutta   : EOM-CC, STEOM-CC                              
  Nicolas Foglia         : Exact transition moments, OPA infrastructure, MCD improvements    
  Dmitry Ganyushin       : Spin-Orbit,Spin-Spin,Magnetic field MRCI      
  Miquel Garcia-Rates    : C-PCM and meta-GGA Hessian, CCSD/C-PCM, Gaussian charge scheme 
  Tiago L. C. Gouveia    : GS-ROHF, GS-ROCIS                             
  Yang Guo               : DLPNO-NEVPT2, F12-NEVPT2, CIM, IAO-localization        
  Andreas Hansen         : Spin unrestricted coupled pair/coupled cluster methods 
  Ingolf Harden          : AUTO-CI MPn and infrastructure                
  Benjamin Helmich-Paris : MC-RPA, TRAH-(SCF,CASSCF), AVAS, COSX integrals, SCF dyn. polar. 
  Lee Huntington         : MR-EOM, pCC                                   
  Robert Izsak           : Overlap fitted RIJCOSX, COSX-SCS-MP3, EOM     
  Riya Kayal             : Wick's Theorem for AUTO-CI, AUTO-CI UHF-CCSDT 
  Emily Kempfer          : AUTO-CI, RHF CISDT and CCSDT                  
  Christian Kollmar      : KDIIS, OOCD, Brueckner-CCSD(T), CCSD density, CASPT2, CASPT2-K, improved NEVPT2 
  Axel Koslowski         : Symmetry handling                             
  Simone Kossmann        : meta-GGA functionals, TD-DFT gradient, OOMP2, (MP2 Hessian; deprecated post 5.0) 
  Lucas Lang             : DCDCAS                                        
  Marvin Lechner         : AUTO-CI (C++ implementation), FIC-MRCC        
  Spencer Leger          : CASSCF response                               
  Dagmar Lenk            : GEPOL surface, SMD, ORCA-2-JSON               
  Dimitrios Liakos       : Extrapolation schemes; Compound Job, initial MDCI parallelization 
  Dimitrios Manganas     : Further ROCIS development; embedding schemes. LFT, Crystal Embedding 
  Dimitrios Pantazis     : SARC Basis sets                               
  Anastasios Papadopoulos: AUTO-CI, single reference methods and gradients 
  Taras Petrenko         : pre 6.0 DFT Hessian and TD-DFT gradient, (ASA, deprecated), ECA, 1-Electron XAS/XES, NRVS 
  Peter Pinski           : DLPNO-MP2, DLPNO-MP2 Gradient                 
  Christoph Reimann      : Effective Core Potentials                     
  Marius Retegan         : Local ZFS, SOC                                
  Christoph Riplinger    : Optimizer, TS searches, QM/MM, DLPNO-CCSD(T), (RO)-DLPNO pert. Triples 
  Michael Roemelt        : Original ROCIS implementation                 
  Masaaki Saitow         : Open-shell DLPNO-CCSD energy and density      
  Barbara Sandhoefer     : DKH picture change effects                    
  Kantharuban Sivalingam : CASSCF convergence/infrastructure, NEVPT2 and variants, FIC-MRCI 
  Bernardo de Souza      : ESD, SOC TD-DFT                               
  Georgi L. Stoychev     : AutoAux, RI-MP2 NMR, DLPNO-MP2 response, X2C  
  Van Anh Tran           : RI-MP2 g-tensors                              
  Willem Van den Heuvel  : Paramagnetic NMR                              
  Zikuan Wang            : NOTCH, Electric field optimization            
  Frank Wennmohs         : Technical directorship and infrastructure     
  Hang Xu                : AUTO-CI-Response properties                   
                                                                         
[FACCTs GmbH]                                                            
  Markus Bursch, Miquel Garcia-Rates, Christoph Riplinger, Bernardo de Souza, Georgi L. Stoychev 
                                                                 
  APM, Basis sets (HGBS, AHGBS, def-TZVP (Ac-Lr), def2-XVPD (La-Lu)), CI-OPT, improved COSX, DLPNO-Multilevel,           
  DOCKER, DRACO, updates on ESD, GOAT, IRC, LR-CPCM, MBIS, meta-GGA TD-DFT gradient, ML-optimized integration grids, 
  MM, NACMEs, nearIR, NEB, NEB-TS, NL-DFT gradient (VV10), 2- and 3-layer-ONIOM, interface openCOSMO-RS, QMMM,   
  Crystal-QMMM, SF, symmetry and pop. for TD-DFT, r2SCAN hybrids, SOLVATOR                                   
                                                                         
[Other institutions]                                                     
  V. Asgeirsson          : NEB                                           
  Christoph Bannwarth    : sTDA-DFT, sTD-DFT, PBEh-3c, B97-3c, D3        
  Sebastian Ehlert       : rSCAN, r2SCAN, r2SCAN-3c, D4, dhf basis sets  
  Marvin Friede          : D4 for Fr, Ra, Ac-Lr                          
  Lars Goerigk           : TD-DFT with DH, B97 family of functionals     
  Stefan Grimme          : VdW corrections, initial TS optimization, DFT functionals, gCP, sTDA/sTD-DF 
  Waldemar Hujo          : DFT-NL                                        
  H. Jonsson             : NEB                                           
  Holger Kruse           : gCP                                           
  Marcel Mueller         : wB97X-3c, vDZP basis set                      
  Hagen Neugebauer       : wr2SCAN                                       
  Tobias Risthaus        : range-separated hybrid DFT                    
  Lukas Wittmann         : regularized MP2, r2SCAN double-hybrids, wr2SCAN        
                                                                         
We gratefully acknowledge several colleagues who have allowed us to      
interface, adapt or use parts of their codes:                            
  Ed Valeev, F. Pavosevic, A. Kumar             : LibInt (2-el integral package), F12 methods 
  Garnet Chan, S. Sharma, J. Yang, R. Olivares  : DMRG                   
  Ulf Ekstrom                                   : XCFun DFT Library      
  Mihaly Kallay                                 : mrcc  (arbitrary order and MRCC methods)
  Frank Weinhold                                : gennbo (NPA and NBO analysis)           
  Simon Mueller                                 : openCOSMO-RS                            
  Christopher J. Cramer and Donald G. Truhlar   : smd solvation model                     
  S Lehtola, MJT Oliveira, MAL Marques          : LibXC Library                           
  Liviu Ungur et al                             : ANISO software                          


 Your calculation uses the libint2 library for the computation of 2-el integrals
 For citations please refer to: http://libint.valeyev.net

 Your ORCA version has been built with support for libXC version: 6.2.2
 For citations please refer to: https://libxc.gitlab.io

 This ORCA versions uses:
   CBLAS   interface :  Fast vector & matrix operations
   LAPACKE interface :  Fast linear algebra routines
   SCALAPACK package :  Parallel linear algebra routines
   Shared memory     :  Shared parallel matrices
   BLAS/LAPACK       :  OpenBLAS 0.3.27  USE64BITINT DYNAMIC_ARCH NO_AFFINITY Zen SINGLE_THREADED
        Core in use  :  Zen
   Copyright (c) 2011-2014, The OpenBLAS Project


Your calculation utilizes the atom-pairwise dispersion correction
with the Becke-Johnson damping scheme (D3BJ)


================================================================================

----- Orbital basis set information -----
Your calculation utilizes the basis: def2-TZVP(-f)
   F. Weigend and R. Ahlrichs, Phys. Chem. Chem. Phys. 7, 3297 (2005).

----- AuxJ basis set information -----
Your calculation utilizes the auxiliary basis: def2/J
   F. Weigend, Phys. Chem. Chem. Phys. 8, 1057 (2006).

----- AuxC basis set information -----
Your calculation utilizes the auxiliary basis: def2-TZVP/C
  H-La, Hf-Rn : A. Hellweg, C. Hattig, S. Hofener and W. Klopper, Theor. Chem. Acc. 117, 587 (2007).
        Ce-Lu : J. Chmela and M. E. Harding, Mol. Phys. (2018).

================================================================================
                                        WARNINGS
                       Please study these warnings very carefully!
================================================================================

INFO   : Checking CIS options ...

WARNING: (CIS/TDDFT): Analytic excited state gradients requested
  ===> : turning on equilibrium dielectric conditions.

WARNING: Analytical Frequencies for this method not available!
  ===> : Switching to Numerical Frequencies!

WARNING: Geometry Optimization
  ===> : Switching off AutoStart
         For restart on a previous wavefunction, please use MOREAD

WARNING: CIS/ROCIS methods need fully converged wavefunctions
  ===> : Setting SCFConvForced true
         You can overwrite this default with %scf ConvForced false 


================================================================================
                                       INPUT FILE
================================================================================
NAME = HBQ-H.inp
|  1> ! B3LYP D3 OPT FREQ Def2-TZVP(-f) Def2-TZVP/C Def2/J RIJCOSX CPCM(Water)
|  2> %tddft
|  3>     NRoots 1
|  4>     IRoot 1
|  5> end
|  6> 
|  7> * xyz 1 1 
|  8>   C   -3.07574324317815     -0.63751054839425     -0.03928097232888
|  9>   C   -2.66486443330521     -1.72391631437015     -0.80071327065515
| 10>   C   -1.34030789295993     -1.81026587865172     -1.16923292335127
| 11>   C   -2.16889747707023      0.37170254733938      0.34589920741624
| 12>   C   -0.79013842701342      0.31905713931617      0.00089935387006
| 13>   O   -2.60259356551333      1.38036489066813      1.13823918863884
| 14>   C   -0.39126842875139     -0.81095469192874     -0.78017743659471
| 15>   C   0.94125398956801     -0.95246561839968     -1.18587690296949
| 16>   C   1.88338061988240     -0.00889643907706     -0.82593706914224
| 17>   C   0.20437307584734      1.28547489900458      0.35650570815050
| 18>   C   1.54148393024291      1.12815543351226     -0.05207483664798
| 19>   N   -0.09502521353097      2.41470477107952      1.10797179512415
| 20>   C   0.85316861630356      3.34873640881533      1.45325714489104
| 21>   C   2.15506901312474      3.20148404513810      1.06383675022906
| 22>   C   2.52980320602453      2.08819718268771      0.30041429027694
| 23>   C   -3.89494877169733      1.94442589926664      0.94341857818463
| 24>   O   -4.40721747406469      1.93343314218008     -0.15482548693898
| 25>   N   -4.35567148026189      2.48045900771159      2.07217993689738
| 26>   C   -5.59899326568962      3.24890666829238      2.03311274388778
| 27>   C   -3.69023532526709      2.42028150560978      3.37375187497470
| 28>   H   -2.88911237213811      1.69105974252974      3.36713027281554
| 29>   H   -4.42645028275115      2.13167105028756      4.12432209005129
| 30>   H   -3.29005265830230      3.40226761246975      3.63330576640834
| 31>   H   -5.99406664407031      3.25771114199881      1.02336810314736
| 32>   H   -5.40327439364491      4.27164562477461      2.35980724086988
| 33>   H   -6.32648544392007      2.79561157299955      2.70784865454823
| 34>   H   -0.98232130729102     -2.64524017586263     -1.75673653982262
| 35>   H   -4.10050513401135     -0.56403749487569      0.29250052772619
| 36>   H   -3.37348039119487     -2.48917452848962     -1.08274377749289
| 37>   H   1.22672284785414     -1.80843618989192     -1.78226019921571
| 38>   H   2.91329392873797     -0.12980146199479     -1.13702031380738
| 39>   H   0.49181962476659      4.18156688993118      2.03618048267854
| 40>   H   2.87669902104245      3.95327835219391      1.34964439276189
| 41>   H   3.54771459896222      1.94618285725436     -0.03055279424069
| 42>   H   -1.04205884672949      2.55510095687507      1.41564841965939
| 43> *
| 44> 
| 45> 
| 46>                          ****END OF INPUT****
================================================================================

                       *****************************
                       * Geometry Optimization Run *
                       *****************************

Geometry optimization settings:
Update method            Update   .... BFGS
Choice of coordinates    CoordSys .... (2022) Redundant Internals
Initial Hessian          InHess   .... Almloef's Model
Max. no of cycles        MaxIter  .... 105

Convergence Tolerances:
Energy Change            TolE     ....  5.0000e-06 Eh
Max. Gradient            TolMAXG  ....  3.0000e-04 Eh/bohr
RMS Gradient             TolRMSG  ....  1.0000e-04 Eh/bohr
Max. Displacement        TolMAXD  ....  4.0000e-03 bohr
RMS Displacement         TolRMSD  ....  2.0000e-03 bohr
Strict Convergence                .... False

------------------------------------------------------------------------------
                        ORCA OPTIMIZATION COORDINATE SETUP
------------------------------------------------------------------------------

The optimization will be done in redundant internal coordinates (2022)
Making redundant internal coordinates   ...  (2022 redundants) done
Evaluating the initial hessian          ...  (Almloef) done
Evaluating the coordinates              ...  done
Calculating the B-matrix                .... done
Calculating the G-matrix                .... done
Diagonalizing the G-matrix              .... done
Small eigenvalue found = 3.751e-03
Small eigenvalue found = 1.232e-02
Small eigenvalue found = 1.333e-02
Small eigenvalue found = 2.412e-02
The first mode is                       ....   82
The number of degrees of freedom        ....   99

    -----------------------------------------------------------------
                    Redundant Internal Coordinates


    -----------------------------------------------------------------
         Definition                    Initial Value    Approx d2E/dq
    -----------------------------------------------------------------
      1. B(C   1,C   0)                  1.3888         0.627463   
      2. B(C   2,C   1)                  1.3776         0.653976   
      3. B(C   3,C   0)                  1.4104         0.579672   
      4. B(C   4,C   3)                  1.4222         0.555007   
      5. B(O   5,C   3)                  1.3540         0.638739   
      6. B(C   6,C   4)                  1.4304         0.538579   
      7. B(C   6,C   2)                  1.4320         0.535437   
      8. B(C   7,C   6)                  1.4001         0.602076   
      9. B(C   8,C   7)                  1.3811         0.645523   
     10. B(C   9,C   4)                  1.4316         0.536256   
     11. B(C  10,C   9)                  1.4070         0.587044   
     12. B(C  10,C   8)                  1.4173         0.565246   
     13. B(N  11,C   9)                  1.3891         0.561523   
     14. B(C  12,N  11)                  1.3750         0.591233   
     15. B(C  13,C  12)                  1.3668         0.680259   
     16. B(C  14,C  13)                  1.4009         0.600173   
     17. B(C  14,C  10)                  1.4222         0.555056   
     18. B(C  15,O   5)                  1.4235         0.494831   
     19. B(O  16,C  15)                  1.2119         1.076556   
     20. B(N  17,C  15)                  1.3318         0.692987   
     21. B(C  18,N  17)                  1.4622         0.429301   
     22. B(C  19,N  17)                  1.4631         0.427886   
     23. B(H  20,C  19)                  1.0833         0.369031   
     24. B(H  21,C  19)                  1.0903         0.359758   
     25. B(H  22,C  19)                  1.0917         0.357857   
     26. B(H  23,C  18)                  1.0843         0.367696   
     27. B(H  24,C  18)                  1.0913         0.358327   
     28. B(H  25,C  18)                  1.0909         0.358955   
     29. B(H  26,C   2)                  1.0819         0.370983   
     30. B(H  27,C   0)                  1.0796         0.374074   
     31. B(H  28,C   1)                  1.0804         0.373005   
     32. B(H  29,C   7)                  1.0816         0.371390   
     33. B(H  30,C   8)                  1.0826         0.369967   
     34. B(H  31,C  12)                  1.0789         0.375117   
     35. B(H  32,C  13)                  1.0806         0.372794   
     36. B(H  33,C  14)                  1.0797         0.373924   
     37. B(H  34,O   5)                  1.9729         0.012589   
     38. B(H  34,N  11)                  1.0056         0.439745   
     39. A(C   1,C   0,H  27)          120.1670         0.355915   
     40. A(C   1,C   0,C   3)          121.2812         0.429775   
     41. A(C   3,C   0,H  27)          118.5331         0.351171   
     42. A(C   0,C   1,H  28)          120.2079         0.355742   
     43. A(C   0,C   1,C   2)          118.6954         0.439205   
     44. A(C   2,C   1,H  28)          121.0912         0.358252   
     45. A(C   1,C   2,C   6)          121.3861         0.426857   
     46. A(C   1,C   2,H  26)          120.7837         0.357921   
     47. A(C   6,C   2,H  26)          117.8276         0.346020   
     48. A(C   4,C   3,O   5)          118.6882         0.425013   
     49. A(C   0,C   3,C   4)          122.0444         0.420441   
     50. A(C   0,C   3,O   5)          119.1381         0.428336   
     51. A(C   3,C   4,C   9)          126.0297         0.414651   
     52. A(C   6,C   4,C   9)          118.3733         0.412444   
     53. A(C   3,C   4,C   6)          115.5959         0.414970   
     54. A(C   3,O   5,C  15)          120.3914         0.413703   
     55. A(C   2,C   6,C   7)          118.7829         0.420592   
     56. A(C   4,C   6,C   7)          120.2295         0.421032   
     57. A(C   2,C   6,C   4)          120.9862         0.412333   
     58. A(C   8,C   7,H  29)          120.2873         0.357197   
     59. A(C   6,C   7,H  29)          119.4038         0.353001   
     60. A(C   6,C   7,C   8)          120.3089         0.434927   
     61. A(C   7,C   8,H  30)          119.8509         0.356964   
     62. A(C  10,C   8,H  30)          118.4230         0.349030   
     63. A(C   7,C   8,C  10)          121.7261         0.430020   
     64. A(C  10,C   9,N  11)          116.9260         0.419527   
     65. A(C   4,C   9,C  10)          120.8358         0.418814   
     66. A(C   4,C   9,N  11)          122.2378         0.412826   
     67. A(C   8,C  10,C  14)          120.6144         0.418562   
     68. A(C   9,C  10,C  14)          120.8612         0.421397   
     69. A(C   8,C  10,C   9)          118.5243         0.422768   
     70. A(C   9,N  11,H  34)          118.8163         0.353654   
     71. A(C   9,N  11,C  12)          122.6450         0.417335   
     72. A(C  12,N  11,H  34)          118.5383         0.356760   
     73. A(N  11,C  12,H  31)          115.4092         0.350343   
     74. A(C  13,C  12,H  31)          123.7874         0.361012   
     75. A(N  11,C  12,C  13)          120.8032         0.434749   
     76. A(C  12,C  13,H  32)          119.0637         0.360630   
     77. A(C  12,C  13,C  14)          119.7120         0.438804   
     78. A(C  14,C  13,H  32)          121.2237         0.353037   
     79. A(C  10,C  14,H  33)          119.3645         0.348585   
     80. A(C  10,C  14,C  13)          119.0521         0.423065   
     81. A(C  13,C  14,H  33)          121.5823         0.353218   
     82. A(O  16,C  15,N  17)          128.7178         0.483372   
     83. A(O   5,C  15,N  17)          110.9506         0.419749   
     84. A(O   5,C  15,O  16)          120.2781         0.454426   
     85. A(C  18,N  17,C  19)          115.6037         0.376171   
     86. A(C  15,N  17,C  19)          125.4577         0.409045   
     87. A(C  15,N  17,C  18)          118.8848         0.409284   
     88. A(H  24,C  18,H  25)          108.8963         0.290469   
     89. A(H  23,C  18,H  25)          109.6567         0.291649   
     90. A(N  17,C  18,H  25)          109.4005         0.329670   
     91. A(H  23,C  18,H  24)          109.6635         0.291569   
     92. A(N  17,C  18,H  24)          109.3918         0.329575   
     93. A(N  17,C  18,H  23)          109.8142         0.330984   
     94. A(H  21,C  19,H  22)          108.7820         0.290511   
     95. A(H  20,C  19,H  22)          109.6246         0.291675   
     96. A(N  17,C  19,H  22)          109.9523         0.329324   
     97. A(H  20,C  19,H  21)          108.9885         0.291918   
     98. A(N  17,C  19,H  21)          108.4338         0.329612   
     99. A(N  17,C  19,H  20)          111.0139         0.331002   
    100. D(H  28,C   1,C   0,H  27)      1.3468         0.027284   
    101. D(C   2,C   1,C   0,C   3)      0.5944         0.027284   
    102. D(H  28,C   1,C   0,C   3)    179.7539         0.027284   
    103. D(C   2,C   1,C   0,H  27)   -177.8127         0.027284   
    104. D(C   6,C   2,C   1,C   0)      0.1971         0.029804   
    105. D(C   6,C   2,C   1,H  28)   -178.9547         0.029804   
    106. D(H  26,C   2,C   1,H  28)      0.4478         0.029804   
    107. D(H  26,C   2,C   1,C   0)    179.5995         0.029804   
    108. D(O   5,C   3,C   0,H  27)      1.3644         0.023085   
    109. D(O   5,C   3,C   0,C   1)   -177.0681         0.023085   
    110. D(C   4,C   3,C   0,H  27)    177.1754         0.023085   
    111. D(C   4,C   3,C   0,C   1)     -1.2571         0.023085   
    112. D(C   6,C   4,C   3,O   5)    176.8658         0.021086   
    113. D(C   6,C   4,C   3,C   0)      1.0367         0.021086   
    114. D(C   9,C   4,C   3,O   5)     -3.5218         0.021086   
    115. D(C   9,C   4,C   3,C   0)   -179.3509         0.021086   
    116. D(C  15,O   5,C   3,C   4)    144.8529         0.033197   
    117. D(C  15,O   5,C   3,C   0)    -39.1944         0.033197   
    118. D(C   7,C   6,C   4,C   9)     -0.3136         0.019817   
    119. D(C   7,C   6,C   4,C   3)    179.3301         0.019817   
    120. D(C   2,C   6,C   4,C   9)   -179.8908         0.019817   
    121. D(C   2,C   6,C   4,C   3)     -0.2471         0.019817   
    122. D(C   7,C   6,C   2,H  26)      0.6325         0.019580   
    123. D(C   7,C   6,C   2,C   1)   -179.9480         0.019580   
    124. D(C   4,C   6,C   2,H  26)   -179.7843         0.019580   
    125. D(C   4,C   6,C   2,C   1)     -0.3648         0.019580   
    126. D(H  29,C   7,C   6,C   4)   -179.5554         0.024999   
    127. D(H  29,C   7,C   6,C   2)      0.0310         0.024999   
    128. D(C   8,C   7,C   6,C   4)      0.5573         0.024999   
    129. D(C   8,C   7,C   6,C   2)   -179.8562         0.024999   
    130. D(C  10,C   8,C   7,C   6)     -0.4915         0.028986   
    131. D(H  30,C   8,C   7,H  29)     -0.3757         0.028986   
    132. D(H  30,C   8,C   7,C   6)    179.5105         0.028986   
    133. D(C  10,C   8,C   7,H  29)    179.6223         0.028986   
    134. D(N  11,C   9,C   4,C   6)    179.7602         0.019641   
    135. D(N  11,C   9,C   4,C   3)      0.1575         0.019641   
    136. D(C  10,C   9,C   4,C   6)      0.0036         0.019641   
    137. D(C  10,C   9,C   4,C   3)   -179.5991         0.019641   
    138. D(C  14,C  10,C   9,N  11)      0.2039         0.023704   
    139. D(C  14,C  10,C   9,C   4)    179.9731         0.023704   
    140. D(C   8,C  10,C   9,N  11)   -179.7023         0.023704   
    141. D(C   8,C  10,C   9,C   4)      0.0669         0.023704   
    142. D(C  14,C  10,C   8,H  30)      0.2679         0.021902   
    143. D(C  14,C  10,C   8,C   7)   -179.7301         0.021902   
    144. D(C   9,C  10,C   8,H  30)   -179.8256         0.021902   
    145. D(C   9,C  10,C   8,C   7)      0.1763         0.021902   
    146. D(H  34,N  11,C   9,C  10)   -179.9556         0.025189   
    147. D(H  34,N  11,C   9,C   4)      0.2788         0.025189   
    148. D(C  12,N  11,C   9,C  10)     -0.1766         0.025189   
    149. D(C  12,N  11,C   9,C   4)   -179.9422         0.025189   
    150. D(H  31,C  12,N  11,H  34)     -0.4064         0.028108   
    151. D(H  31,C  12,N  11,C   9)    179.8140         0.028108   
    152. D(C  13,C  12,N  11,H  34)    179.7657         0.028108   
    153. D(C  13,C  12,N  11,C   9)     -0.0139         0.028108   
    154. D(H  32,C  13,C  12,H  31)      0.1003         0.032440   
    155. D(H  32,C  13,C  12,N  11)    179.9133         0.032440   
    156. D(C  14,C  13,C  12,H  31)   -179.6336         0.032440   
    157. D(C  14,C  13,C  12,N  11)      0.1793         0.032440   
    158. D(C  10,C  14,C  13,C  12)     -0.1461         0.024833   
    159. D(H  33,C  14,C  10,C   9)   -179.6738         0.021090   
    160. D(H  33,C  14,C  10,C   8)      0.2304         0.021090   
    161. D(C  13,C  14,C  10,C   9)     -0.0486         0.021090   
    162. D(C  13,C  14,C  10,C   8)    179.8556         0.021090   
    163. D(H  33,C  14,C  13,H  32)     -0.2577         0.024833   
    164. D(H  33,C  14,C  13,C  12)    179.4704         0.024833   
    165. D(C  10,C  14,C  13,H  32)   -179.8742         0.024833   
    166. D(N  17,C  15,O   5,C   3)    154.2750         0.019346   
    167. D(O  16,C  15,O   5,C   3)    -28.1599         0.019346   
    168. D(C  19,N  17,C  15,O  16)    178.2528         0.039661   
    169. D(C  19,N  17,C  15,O   5)     -4.4425         0.039661   
    170. D(C  18,N  17,C  15,O  16)     -4.5387         0.039661   
    171. D(C  18,N  17,C  15,O   5)    172.7661         0.039661   
    172. D(H  25,C  18,N  17,C  15)    121.1521         0.015713   
    173. D(H  24,C  18,N  17,C  19)     57.8376         0.015713   
    174. D(H  24,C  18,N  17,C  15)   -119.6412         0.015713   
    175. D(H  23,C  18,N  17,C  19)    178.2358         0.015713   
    176. D(H  23,C  18,N  17,C  15)      0.7569         0.015713   
    177. D(H  22,C  19,N  17,C  15)    108.1716         0.015610   
    178. D(H  21,C  19,N  17,C  18)     49.7015         0.015610   
    179. D(H  21,C  19,N  17,C  15)   -133.0087         0.015610   
    180. D(H  20,C  19,N  17,C  18)    169.4010         0.015610   
    181. D(H  20,C  19,N  17,C  15)    -13.3093         0.015610   
    -----------------------------------------------------------------

Number of atoms                         .... 35
Number of degrees of freedom            .... 181


         *************************************************************
         *                GEOMETRY OPTIMIZATION CYCLE   1            *
         *************************************************************
---------------------------------
CARTESIAN COORDINATES (ANGSTROEM)
---------------------------------
  C     -3.075743   -0.637511   -0.039281
  C     -2.664864   -1.723916   -0.800713
  C     -1.340308   -1.810266   -1.169233
  C     -2.168897    0.371703    0.345899
  C     -0.790138    0.319057    0.000899
  O     -2.602594    1.380365    1.138239
  C     -0.391268   -0.810955   -0.780177
  C      0.941254   -0.952466   -1.185877
  C      1.883381   -0.008896   -0.825937
  C      0.204373    1.285475    0.356506
  C      1.541484    1.128155   -0.052075
  N     -0.095025    2.414705    1.107972
  C      0.853169    3.348736    1.453257
  C      2.155069    3.201484    1.063837
  C      2.529803    2.088197    0.300414
  C     -3.894949    1.944426    0.943419
  O     -4.407217    1.933433   -0.154825
  N     -4.355671    2.480459    2.072180
  C     -5.598993    3.248907    2.033113
  C     -3.690235    2.420282    3.373752
  H     -2.889112    1.691060    3.367130
  H     -4.426450    2.131671    4.124322
  H     -3.290053    3.402268    3.633306
  H     -5.994067    3.257711    1.023368
  H     -5.403274    4.271646    2.359807
  H     -6.326485    2.795612    2.707849
  H     -0.982321   -2.645240   -1.756737
  H     -4.100505   -0.564037    0.292501
  H     -3.373480   -2.489175   -1.082744
  H      1.226723   -1.808436   -1.782260
  H      2.913294   -0.129801   -1.137020
  H      0.491820    4.181567    2.036180
  H      2.876699    3.953278    1.349644
  H      3.547715    1.946183   -0.030553
  H     -1.042059    2.555101    1.415648

----------------------------
CARTESIAN COORDINATES (A.U.)
----------------------------
  NO LB      ZA    FRAG     MASS         X           Y           Z
   0 C     6.0000    0    12.011   -5.812312   -1.204720   -0.074230
   1 C     6.0000    0    12.011   -5.035864   -3.257730   -1.513129
   2 C     6.0000    0    12.011   -2.532815   -3.420907   -2.209530
   3 C     6.0000    0    12.011   -4.098622    0.702416    0.653655
   4 C     6.0000    0    12.011   -1.493145    0.602931    0.001700
   5 O     8.0000    0    15.999   -4.918189    2.608512    2.150960
   6 C     6.0000    0    12.011   -0.739390   -1.532482   -1.474322
   7 C     6.0000    0    12.011    1.778712   -1.799899   -2.240983
   8 C     6.0000    0    12.011    3.559074   -0.016812   -1.560795
   9 C     6.0000    0    12.011    0.386209    2.429196    0.673698
  10 C     6.0000    0    12.011    2.912982    2.131905   -0.098407
  11 N     7.0000    0    14.007   -0.179572    4.563131    2.093763
  12 C     6.0000    0    12.011    1.612255    6.328195    2.746258
  13 C     6.0000    0    12.011    4.072490    6.049928    2.010360
  14 C     6.0000    0    12.011    4.780635    3.946121    0.567701
  15 C     6.0000    0    12.011   -7.360386    3.674432    1.782803
  16 O     8.0000    0    15.999   -8.328434    3.653659   -0.292578
  17 N     7.0000    0    14.007   -8.231026    4.687388    3.915853
  18 C     6.0000    0    12.011  -10.580564    6.139544    3.842026
  19 C     6.0000    0    12.011   -6.973534    4.573669    6.375467
  20 H     1.0000    0     1.008   -5.459631    3.195640    6.362954
  21 H     1.0000    0     1.008   -8.364779    4.028274    7.793839
  22 H     1.0000    0     1.008   -6.217298    6.429354    6.865953
  23 H     1.0000    0     1.008  -11.327144    6.156182    1.933885
  24 H     1.0000    0     1.008  -10.210709    8.072240    4.459389
  25 H     1.0000    0     1.008  -11.955325    5.282940    5.117092
  26 H     1.0000    0     1.008   -1.856318   -4.998779   -3.319751
  27 H     1.0000    0     1.008   -7.748832   -1.065876    0.552746
  28 H     1.0000    0     1.008   -6.374954   -4.703858   -2.046089
  29 H     1.0000    0     1.008    2.318170   -3.417449   -3.367984
  30 H     1.0000    0     1.008    5.505328   -0.245289   -2.148657
  31 H     1.0000    0     1.008    0.929404    7.902016    3.847823
  32 H     1.0000    0     1.008    5.436173    7.470613    2.550458
  33 H     1.0000    0     1.008    6.704209    3.677753   -0.057736
  34 H     1.0000    0     1.008   -1.969206    4.828441    2.675188

--------------------------------
INTERNAL COORDINATES (ANGSTROEM)
--------------------------------
 C      0   0   0     0.000000000000     0.00000000     0.00000000
 C      1   0   0     1.388840534288     0.00000000     0.00000000
 C      2   1   0     1.377575047047   118.69544740     0.00000000
 C      1   2   3     1.410405646251   121.28120797     0.59444538
 C      4   1   2     1.422242228330   122.04443019   358.74292283
 O      4   1   2     1.353992121773   119.13810066   182.93191505
 C      5   4   1     1.430421255040   115.59591851     1.03666724
 C      7   5   4     1.400083352751   120.22953482   179.33012781
 C      8   7   5     1.381116239746   120.30886196     0.55732075
 C      5   4   1     1.431597811806   126.02967606   180.64905240
 C     10   5   4     1.406965853442   120.83578890   180.40089228
 N     10   5   4     1.389064692353   122.23782720     0.15754973
 C     12  10   5     1.375030404024   122.64500202   180.05776617
 C     13  12  10     1.366848984208   120.80322527     0.00000000
 C     14  13  12     1.400945111627   119.71201902     0.17930939
 C      6   4   1     1.423482304291   120.39141996   320.80555582
 O     16   6   4     1.211891121641   120.27806450   331.84005737
 N     16   6   4     1.331802955568   110.95059350   154.27498376
 C     18  16   6     1.462151536176   118.88480122   172.76609932
 C     18  16   6     1.463050278741   125.45770858   355.55753437
 H     20  18  16     1.083331071923   111.01389232   346.69071445
 H     20  18  16     1.090258733652   108.43377387   226.99127591
 H     20  18  16     1.091701013814   109.95234342   108.17157371
 H     19  18  16     1.084317634536   109.81419201     0.75694096
 H     19  18  16     1.091343275207   109.39178503   240.35876569
 H     19  18  16     1.090866564680   109.40046519   121.15208542
 H      3   2   1     1.081895083587   120.78368109   179.59954239
 H      1   2   3     1.079636136055   120.16703193   182.18734307
 H      2   1   3     1.080415622268   120.20789891   179.15947648
 H      8   7   5     1.081596562658   119.40378848   180.44455645
 H      9   8   7     1.082641322616   119.85093506   179.51050638
 H     13  12  10     1.078878733546   115.40917503   179.81400804
 H     14  13  12     1.080569552125   119.06369828   179.91326475
 H     15  14  13     1.079745749487   121.58228873   179.47038382
 H     12  10   5     1.005608620031   118.81629640     0.27879024

---------------------------
INTERNAL COORDINATES (A.U.)
---------------------------
 C      0   0   0     0.000000000000     0.00000000     0.00000000
 C      1   0   0     2.624528253494     0.00000000     0.00000000
 C      2   1   0     2.603239567842   118.69544740     0.00000000
 C      1   2   3     2.665280409151   121.28120797     0.59444538
 C      4   1   2     2.687648307642   122.04443019   358.74292283
 O      4   1   2     2.558674297638   119.13810066   182.93191505
 C      5   4   1     2.703104428165   115.59591851     1.03666724
 C      7   5   4     2.645774101362   120.22953482   179.33012781
 C      8   7   5     2.609931452231   120.30886196     0.55732075
 C      5   4   1     2.705327798235   126.02967606   180.64905240
 C     10   5   4     2.658780142785   120.83578890   180.40089228
 N     10   5   4     2.624951850846   122.23782720     0.15754973
 C     12  10   5     2.598430889421   122.64500202   180.05776617
 C     13  12  10     2.582970246582   120.80322527     0.00000000
 C     14  13  12     2.647402589631   119.71201902     0.17930939
 C      6   4   1     2.689991711593   120.39141996   320.80555582
 O     16   6   4     2.290142324032   120.27806450   331.84005737
 N     16   6   4     2.516742850370   110.95059350   154.27498376
 C     18  16   6     2.763065969664   118.88480122   172.76609932
 C     18  16   6     2.764764346977   125.45770858   355.55753437
 H     20  18  16     2.047199038303   111.01389232   346.69071445
 H     20  18  16     2.060290421718   108.43377387   226.99127591
 H     20  18  16     2.063015936233   109.95234342   108.17157371
 H     19  18  16     2.049063371455   109.81419201     0.75694096
 H     19  18  16     2.062339908238   109.39178503   240.35876569
 H     19  18  16     2.061439055898   109.40046519   121.15208542
 H      3   2   1     2.044485413614   120.78368109   179.59954239
 H      1   2   3     2.040216621429   120.16703193   182.18734307
 H      2   1   3     2.041689636896   120.20789891   179.15947648
 H      8   7   5     2.043921290814   119.40378848   180.44455645
 H      9   8   7     2.045895601011   119.85093506   179.51050638
 H     13  12  10     2.038785338114   115.40917503   179.81400804
 H     14  13  12     2.041980522170   119.06369828   179.91326475
 H     15  14  13     2.040423760796   121.58228873   179.47038382
 H     12  10   5     1.900324889769   118.81629640     0.27879024

---------------------
BASIS SET INFORMATION
---------------------
There are 4 groups of distinct atoms

 Group   1 Type C   : 11s6p2d contracted to 5s3p2d pattern {62111/411/11}
 Group   2 Type O   : 11s6p2d contracted to 5s3p2d pattern {62111/411/11}
 Group   3 Type N   : 11s6p2d contracted to 5s3p2d pattern {62111/411/11}
 Group   4 Type H   : 5s1p contracted to 3s1p pattern {311/1}

Atom   0C    basis set group =>   1
Atom   1C    basis set group =>   1
Atom   2C    basis set group =>   1
Atom   3C    basis set group =>   1
Atom   4C    basis set group =>   1
Atom   5O    basis set group =>   2
Atom   6C    basis set group =>   1
Atom   7C    basis set group =>   1
Atom   8C    basis set group =>   1
Atom   9C    basis set group =>   1
Atom  10C    basis set group =>   1
Atom  11N    basis set group =>   3
Atom  12C    basis set group =>   1
Atom  13C    basis set group =>   1
Atom  14C    basis set group =>   1
Atom  15C    basis set group =>   1
Atom  16O    basis set group =>   2
Atom  17N    basis set group =>   3
Atom  18C    basis set group =>   1
Atom  19C    basis set group =>   1
Atom  20H    basis set group =>   4
Atom  21H    basis set group =>   4
Atom  22H    basis set group =>   4
Atom  23H    basis set group =>   4
Atom  24H    basis set group =>   4
Atom  25H    basis set group =>   4
Atom  26H    basis set group =>   4
Atom  27H    basis set group =>   4
Atom  28H    basis set group =>   4
Atom  29H    basis set group =>   4
Atom  30H    basis set group =>   4
Atom  31H    basis set group =>   4
Atom  32H    basis set group =>   4
Atom  33H    basis set group =>   4
Atom  34H    basis set group =>   4
---------------------------------
AUXILIARY/J BASIS SET INFORMATION
---------------------------------
There are 4 groups of distinct atoms

 Group   1 Type C   : 12s5p4d2f1g contracted to 6s4p3d1f1g pattern {711111/2111/211/2/1}
 Group   2 Type O   : 12s5p4d2f1g contracted to 6s4p3d1f1g pattern {711111/2111/211/2/1}
 Group   3 Type N   : 12s5p4d2f1g contracted to 6s4p3d1f1g pattern {711111/2111/211/2/1}
 Group   4 Type H   : 5s2p1d contracted to 3s1p1d pattern {311/2/1}

Atom   0C    basis set group =>   1
Atom   1C    basis set group =>   1
Atom   2C    basis set group =>   1
Atom   3C    basis set group =>   1
Atom   4C    basis set group =>   1
Atom   5O    basis set group =>   2
Atom   6C    basis set group =>   1
Atom   7C    basis set group =>   1
Atom   8C    basis set group =>   1
Atom   9C    basis set group =>   1
Atom  10C    basis set group =>   1
Atom  11N    basis set group =>   3
Atom  12C    basis set group =>   1
Atom  13C    basis set group =>   1
Atom  14C    basis set group =>   1
Atom  15C    basis set group =>   1
Atom  16O    basis set group =>   2
Atom  17N    basis set group =>   3
Atom  18C    basis set group =>   1
Atom  19C    basis set group =>   1
Atom  20H    basis set group =>   4
Atom  21H    basis set group =>   4
Atom  22H    basis set group =>   4
Atom  23H    basis set group =>   4
Atom  24H    basis set group =>   4
Atom  25H    basis set group =>   4
Atom  26H    basis set group =>   4
Atom  27H    basis set group =>   4
Atom  28H    basis set group =>   4
Atom  29H    basis set group =>   4
Atom  30H    basis set group =>   4
Atom  31H    basis set group =>   4
Atom  32H    basis set group =>   4
Atom  33H    basis set group =>   4
Atom  34H    basis set group =>   4
---------------------------------
AUXILIARY/C BASIS SET INFORMATION
---------------------------------
There are 4 groups of distinct atoms

 Group   1 Type C   : 8s6p5d3f1g contracted to 8s6p4d3f1g pattern {11111111/111111/2111/111/1}
 Group   2 Type O   : 8s6p5d3f1g contracted to 8s6p4d3f1g pattern {11111111/111111/2111/111/1}
 Group   3 Type N   : 8s6p5d3f1g contracted to 8s6p4d3f1g pattern {11111111/111111/2111/111/1}
 Group   4 Type H   : 4s3p2d contracted to 4s2p1d pattern {1111/21/2}

Atom   0C    basis set group =>   1
Atom   1C    basis set group =>   1
Atom   2C    basis set group =>   1
Atom   3C    basis set group =>   1
Atom   4C    basis set group =>   1
Atom   5O    basis set group =>   2
Atom   6C    basis set group =>   1
Atom   7C    basis set group =>   1
Atom   8C    basis set group =>   1
Atom   9C    basis set group =>   1
Atom  10C    basis set group =>   1
Atom  11N    basis set group =>   3
Atom  12C    basis set group =>   1
Atom  13C    basis set group =>   1
Atom  14C    basis set group =>   1
Atom  15C    basis set group =>   1
Atom  16O    basis set group =>   2
Atom  17N    basis set group =>   3
Atom  18C    basis set group =>   1
Atom  19C    basis set group =>   1
Atom  20H    basis set group =>   4
Atom  21H    basis set group =>   4
Atom  22H    basis set group =>   4
Atom  23H    basis set group =>   4
Atom  24H    basis set group =>   4
Atom  25H    basis set group =>   4
Atom  26H    basis set group =>   4
Atom  27H    basis set group =>   4
Atom  28H    basis set group =>   4
Atom  29H    basis set group =>   4
Atom  30H    basis set group =>   4
Atom  31H    basis set group =>   4
Atom  32H    basis set group =>   4
Atom  33H    basis set group =>   4
Atom  34H    basis set group =>   4
------------------------------------------------------------------------------
                             ORCA STARTUP CALCULATIONS
                           -- RI-GTO INTEGRALS CHOSEN --
------------------------------------------------------------------------------
------------------------------------------------------------------------------
                   ___                                                        
                  /   \      - P O W E R E D   B Y -                         
                 /     \                                                     
                 |  |  |   _    _      __       _____    __    __             
                 |  |  |  | |  | |    /  \     |  _  \  |  |  /  |          
                  \  \/   | |  | |   /    \    | | | |  |  | /  /          
                 / \  \   | |__| |  /  /\  \   | |_| |  |  |/  /          
                |  |  |   |  __  | /  /__\  \  |    /   |      \           
                |  |  |   | |  | | |   __   |  |    \   |  |\   \          
                \     /   | |  | | |  |  |  |  | |\  \  |  | \   \       
                 \___/    |_|  |_| |__|  |__|  |_| \__\ |__|  \__/        
                                                                              
                      - O R C A' S   B I G   F R I E N D -                    
                                      &                                       
                       - I N T E G R A L  F E E D E R -                       
                                                                              
 v1 FN, 2020, v2 2021, v3 2022-2024                                           
------------------------------------------------------------------------------


----------------------
SHARK INTEGRAL PACKAGE
----------------------

Number of atoms                             ...     35
Number of basis functions                   ...    570
Number of shells                            ...    260
Maximum angular momentum                    ...      2
Integral batch strategy                     ... SHARK/LIBINT Hybrid
RI-J (if used) integral strategy            ... SPLIT-RIJ (Revised 2003 algorithm where possible)
Printlevel                                  ...      1
Contraction scheme used                     ... SEGMENTED contraction
Prescreening option                         ... SCHWARTZ
   Thresh                                   ... 2.500e-11
   Tcut                                     ... 2.500e-12
   Tpresel                                  ... 2.500e-12 
Coulomb Range Separation                    ... NOT USED
Exchange Range Separation                   ... NOT USED
Multipole approximations                    ... NOT USED
Finite Nucleus Model                        ... NOT USED
CABS basis                                  ... NOT available
Auxiliary Coulomb fitting basis             ... AVAILABLE
   # of basis functions in Aux-J            ...   1145
   # of shells in Aux-J                     ...    375
   Maximum angular momentum in Aux-J        ...      4
Auxiliary J/K fitting basis                 ... NOT available
Auxiliary Correlation fitting basis         ... AVAILABLE
   # of basis functions in Aux-C            ...   1745
   # of shells in Aux-C                     ...    545
   Maximum angular momentum in Aux-C        ...      4
Auxiliary 'external' fitting basis          ... NOT available

Checking pre-screening integrals            ... done (  0.0 sec) Dimension = 260
Check shell pair data                       ... done (  0.0 sec)
Shell pair information
Shell pair cut-off parameter TPreSel        ...   2.5e-12
Total number of shell pairs                 ...     33930
Shell pairs after pre-screening             ...     25224
Total number of primitive shell pairs       ...    111170
Primitive shell pairs kept                  ...     54855
          la=0 lb=0:   7453 shell pairs
          la=1 lb=0:   8303 shell pairs
          la=1 lb=1:   2320 shell pairs
          la=2 lb=0:   4192 shell pairs
          la=2 lb=1:   2341 shell pairs
          la=2 lb=2:    615 shell pairs

Calculating one electron integrals          ... done (  0.1 sec)
Calculating RI/J V-Matrix + Cholesky decomp.... done (  0.4 sec)
Calculating RI/C V-Matrix + Cholesky decomp.... done (  0.9 sec)
Calculating Nuclear repulsion               ... done (  0.0 sec) ENN=   1503.648316762811 Eh

Diagonalization of the overlap matrix:
Smallest eigenvalue                        ... 3.534e-06
Time for diagonalization                   ...    0.030 sec
Threshold for overlap eigenvalues          ... 1.000e-07
Number of eigenvalues below threshold      ... 0
Time for construction of square roots      ...    0.064 sec
Total time needed                          ...    0.111 sec

-------------------
DFT GRID GENERATION
-------------------

General Integration Accuracy     IntAcc      ... 4.388
Radial Grid Type                 RadialGrid  ... OptM3 with GC (2021)
Angular Grid (max. ang.)         AngularGrid ... 4 (Lebedev-302)
Angular grid pruning method      GridPruning ... 4 (adaptive)
Weight generation scheme         WeightScheme... mBecke (2022)
Basis function cutoff            BFCut       ... 1.0000e-11
Integration weight cutoff        WCut        ... 1.0000e-14
Partially contracted basis set               ... off
Rotationally invariant grid construction     ... off
Angular grids for H and He will be reduced by one unit

Total number of grid points                  ...   167601
Total number of batches                      ...     2639
Average number of points per batch           ...       63
Average number of grid points per atom       ...     4789

--------------------
COSX GRID GENERATION
--------------------

GRIDX 1
-------
General Integration Accuracy     IntAcc      ... 3.816
Radial Grid Type                 RadialGrid  ... OptM3 with GC (2021)
Angular Grid (max. ang.)         AngularGrid ... 1 (Lebedev-50)
Angular grid pruning method      GridPruning ... 4 (adaptive)
Weight generation scheme         WeightScheme... mBecke (2022)
Basis function cutoff            BFCut       ... 1.0000e-11
Integration weight cutoff        WCut        ... 1.0000e-14
Partially contracted basis set               ... on
Rotationally invariant grid construction     ... off
Angular grids for H and He will be reduced by one unit

Total number of grid points                  ...    21324
Total number of batches                      ...      185
Average number of points per batch           ...      115
Average number of grid points per atom       ...      609
UseSFitting                                  ... on

GRIDX 2
-------
General Integration Accuracy     IntAcc      ... 4.020
Radial Grid Type                 RadialGrid  ... OptM3 with GC (2021)
Angular Grid (max. ang.)         AngularGrid ... 2 (Lebedev-110)
Angular grid pruning method      GridPruning ... 4 (adaptive)
Weight generation scheme         WeightScheme... mBecke (2022)
Basis function cutoff            BFCut       ... 1.0000e-11
Integration weight cutoff        WCut        ... 1.0000e-14
Partially contracted basis set               ... on
Rotationally invariant grid construction     ... off
Angular grids for H and He will be reduced by one unit

Total number of grid points                  ...    46408
Total number of batches                      ...      377
Average number of points per batch           ...      123
Average number of grid points per atom       ...     1326
UseSFitting                                  ... on

GRIDX 3
-------
General Integration Accuracy     IntAcc      ... 4.338
Radial Grid Type                 RadialGrid  ... OptM3 with GC (2021)
Angular Grid (max. ang.)         AngularGrid ... 3 (Lebedev-194)
Angular grid pruning method      GridPruning ... 4 (adaptive)
Weight generation scheme         WeightScheme... mBecke (2022)
Basis function cutoff            BFCut       ... 1.0000e-11
Integration weight cutoff        WCut        ... 1.0000e-14
Partially contracted basis set               ... on
Rotationally invariant grid construction     ... off
Angular grids for H and He will be reduced by one unit

Total number of grid points                  ...   101635
Total number of batches                      ...      810
Average number of points per batch           ...      125
Average number of grid points per atom       ...     2904
UseSFitting                                  ... on
Initializing property integral containers    ... done (  0.0 sec)

SHARK setup successfully completed in   9.7 seconds

Maximum memory used throughout the entire STARTUP-calculation: 104.9 MB
-------------------------------------------------------------------------------
                                 ORCA GUESS
                   Start orbitals & Density for SCF / CASSCF
-------------------------------------------------------------------------------

------------
SCF SETTINGS
------------
Hamiltonian:
 Density Functional     Method          .... DFT(GTOs)
 Exchange Functional    Exchange        .... B88
   X-Alpha parameter    XAlpha          ....  0.666667
   Becke's b parameter  XBeta           ....  0.004200
 Correlation Functional Correlation     .... LYP
 LDA part of GGA corr.  LDAOpt          .... VWN-5
 Gradients option       PostSCFGGA      .... off
 Hybrid DFT is turned on
   Fraction HF Exchange ScalHFX         ....  0.200000
   Scaling of DF-GGA-X  ScalDFX         ....  0.720000
   Scaling of DF-GGA-C  ScalDFC         ....  0.810000
   Scaling of DF-LDA-C  ScalLDAC        ....  1.000000
   Perturbative correction              ....  0.000000
   NL short-range parameter             ....  4.800000
 RI-approximation to the Coulomb term is turned on
   Number of AuxJ basis functions       .... 1145
   RIJ-COSX (HFX calculated with COS-X)).... on


General Settings:
 Integral files         IntName         .... HBQ-H
 Hartree-Fock type      HFTyp           .... RHF
 Total Charge           Charge          ....    1
 Multiplicity           Mult            ....    1
 Number of Electrons    NEL             ....  140
 Basis Dimension        Dim             ....  570
 Nuclear Repulsion      ENuc            ....   1503.6483167628 Eh

Convergence Acceleration:
 AO-DIIS                CNVDIIS         .... on
   Start iteration      DIISMaxIt       ....    12
   Startup error        DIISStart       ....  0.200000
   # of expansion vecs  DIISMaxEq       ....     5
   Bias factor          DIISBfac        ....   1.050
   Max. coefficient     DIISMaxC        ....  10.000
 MO-DIIS                CNVKDIIS        .... off
 Trust-Rad. Augm. Hess. CNVTRAH         .... auto
   Auto Start mean grad. ratio tolernc. ....  1.125000
   Auto Start start iteration           ....    50
   Auto Start num. interpolation iter.  ....    10
   Max. Number of Micro iterations      ....    24
   Max. Number of Macro iterations      .... Maxiter - #DIIS iter
   Number of Davidson start vectors     ....     2
   Converg. threshold    (grad. norm)   ....   1.000e-05
   Grad. Scal. Fac. for Micro threshold ....   0.100
   Minimum threshold for Micro iter.    ....   1.000e-02
   NR start threshold (gradient norm)   ....   1.000e-04
   Initial trust radius                 ....   0.400
   Minimum AH scaling param. (alpha)    ....   1.000
   Maximum AH scaling param. (alpha)    .... 1000.000
   Quad. conv. algorithm                .... NR
   White noise on init. David. guess    .... on
   Maximum white noise                  ....   0.010
   Pseudo random numbers                .... off
   Inactive MOs                         .... canonical
   Orbital update algorithm             .... Taylor
   Preconditioner                       .... Diag
   Full preconditioner red. dimension   ....   250
 SOSCF                  CNVSOSCF        .... on
   Start iteration      SOSCFMaxIt      ....   150
   Startup grad/error   SOSCFStart      ....  0.003300
   Hessian update       SOSCFHessUp     .... L-BFGS
 Level Shifting         CNVShift        .... on
   Level shift para.    LevelShift      ....    0.2500
   Turn off err/grad.   ShiftErr        ....    0.0010
 Zerner damping         CNVZerner       .... off
 Static damping         CNVDamp         .... on
   Fraction old density DampFac         ....    0.7000
   Max. Damping (<1)    DampMax         ....    0.9800
   Min. Damping (>=0)   DampMin         ....    0.0000
   Turn off err/grad.   DampErr         ....    0.1000

SCF Procedure:
 Maximum # iterations   MaxIter         ....   125
 SCF integral mode      SCFMode         .... Direct
   Integral package                     .... SHARK and LIBINT hybrid scheme
 Reset frequency        DirectResetFreq ....    20
 Integral Threshold     Thresh          ....  2.500e-11 Eh
 Primitive CutOff       TCut            ....  2.500e-12 Eh

Convergence Tolerance:
 Convergence Check Mode ConvCheckMode   .... Total+1el-Energy
 Convergence forced     ConvForced      .... 1
 Energy Change          TolE            ....  1.000e-08 Eh
 1-El. energy change                    ....  1.000e-05 Eh
 Orbital Gradient       TolG            ....  1.000e-05
 Orbital Rotation angle TolX            ....  1.000e-05
 DIIS Error             TolErr          ....  5.000e-07

------------------------------
INITIAL GUESS: MODEL POTENTIAL
------------------------------
Loading Hartree-Fock densities                     ... done
Calculating cut-offs                               ... done
Initializing the effective Hamiltonian             ... done
Setting up the integral package (SHARK)            ... done
Starting the Coulomb interaction                   ... done (   1.5 sec)
Making the grid                                    ... done (   1.1 sec)
Mapping shells                                     ... done
Starting the XC term evaluation                    ... done (   0.7 sec)
  promolecular density results
     # of electrons  =    141.001394071
     EX              =   -116.378370405
     EC              =     -4.815646081
     EX+EC           =   -121.194016486
Transforming the Hamiltonian                       ... done (   0.0 sec)
Diagonalizing the Hamiltonian                      ... done (   0.0 sec)
Back transforming the eigenvectors                 ... done (   0.1 sec)
Now organizing SCF variables                       ... done
                      ------------------
                      INITIAL GUESS DONE (   3.7 sec)
                      ------------------
             **** ENERGY FILE WAS UPDATED (HBQ-H.en.tmp) ****
Finished Guess after   4.5 sec
Maximum memory used throughout the entire GUESS-calculation: 72.5 MB

-------------------------------------------------------------------------------------------
                                      ORCA LEAN-SCF
                              memory conserving SCF solver
-------------------------------------------------------------------------------------------

--------------------
CPCM SOLVATION MODEL
--------------------
CPCM parameters:
  Epsilon                                         ...      80.1510
  Refrac                                          ...       1.3328
  Rsolv                                           ...       1.3000
  Surface type                                    ... GAUSSIAN VDW
  Discretization scheme                           ... Constant charge density
    Threshold for H atoms                         ...       5.0000 (charges/Ang^2)
    Threshold for non-H atoms                     ...       5.0000 (charges/Ang^2)
  Epsilon function type                           ...         CPCM
Solvent:                                          ... WATER
Radii:
  Scheme                                          ... Element-dependent radii
  Radius for C  used is    3.8550 Bohr (=   2.0400 Ang.)
  Radius for O  used is    3.4469 Bohr (=   1.8240 Ang.)
  Radius for N  used is    3.5149 Bohr (=   1.8600 Ang.)
  Radius for H  used is    2.4944 Bohr (=   1.3200 Ang.)
Calculating surface                               ...        done! (  0.0s)
Cavity surface points                             ...         3062
Cavity Volume                                     ...    2133.1109
Cavity Surface-area                               ...    1089.0020
Calculating surface distance matrix               ...        done! (  0.0s)
Performing Cholesky decomposition & store         ...        done! (  1.9s)
Overall time for CPCM initialization              ...                 2.0s

----------------------------------------D-I-I-S--------------------------------------------
Iteration    Energy (Eh)           Delta-E    RMSDP     MaxDP     DIISErr   Damp  Time(sec)
-------------------------------------------------------------------------------------------
               ***  Starting incremental Fock matrix formation  ***
    1    -877.9379442334034138     0.00e+00  2.15e-03  1.54e-01  3.04e-01  0.700  37.5
    2    -878.1362572264019946    -1.98e-01  1.78e-03  1.37e-01  1.17e-01  0.700  21.5
                               ***Turning on AO-DIIS***
    3    -878.2157512175836018    -7.95e-02  6.12e-04  2.92e-02  3.58e-02  0.700  21.0
    4    -878.2640493395897465    -4.83e-02  1.17e-03  7.79e-02  1.91e-02  0.000  19.8
    5    -878.3695272173927151    -1.05e-01  3.39e-04  2.82e-02  5.16e-03  0.000  20.5
                              *** Initializing SOSCF ***
---------------------------------------S-O-S-C-F--------------------------------------
Iteration    Energy (Eh)           Delta-E    RMSDP     MaxDP     MaxGrad    Time(sec)
--------------------------------------------------------------------------------------
    6    -878.3700853950836063    -5.58e-04  8.58e-05  7.55e-03  2.17e-03    18.8
               *** Restarting incremental Fock matrix formation ***
    7    -878.3701212547348405    -3.59e-05  1.54e-04  1.34e-02  5.13e-04    41.5
    8    -878.3701016975892344     1.96e-05  7.49e-05  7.03e-03  1.12e-03    26.8
    9    -878.3701316445963130    -2.99e-05  8.63e-06  8.86e-04  3.12e-05    27.7
   10    -878.3701315477906064     9.68e-08  2.42e-06  1.29e-04  4.49e-05    25.4
   11    -878.3701317778372868    -2.30e-07  1.75e-05  2.24e-03  1.10e-05    19.7
   12    -878.3701317576633301     2.02e-08  2.11e-06  1.61e-04  1.56e-05    17.3
   13    -878.3701317725885929    -1.49e-08  6.86e-06  7.21e-04  1.53e-06    16.5
                  *** Gradient check signals convergence ***

               *****************************************************
               *                     SUCCESS                       *
               *           SCF CONVERGED AFTER  13 CYCLES          *
               *****************************************************

Recomputing exchange energy using gridx3       ... done (   57.495 sec)
Old exchange energy                            :    -23.562741649 Eh
New exchange energy                            :    -23.562722373 Eh
Exchange energy change after final integration :      0.000019276 Eh
Total energy after final integration           :   -878.370112496 Eh
             **** ENERGY FILE WAS UPDATED (HBQ-H.en.tmp) ****

----------------
TOTAL SCF ENERGY
----------------

Total Energy       :       -878.37011249645764 Eh          -23901.66590 eV

Components:
Nuclear Repulsion  :       1503.64831676281074 Eh           40916.35085 eV
Electronic Energy  :      -2381.93157675401699 Eh          -64815.65337 eV
One Electron Energy:      -4159.04234671328140 Eh         -113173.29587 eV
Two Electron Energy:       1777.11076995926442 Eh           48357.64251 eV
CPCM Dielectric    :         -0.08687178138232 Eh              -2.36390 eV

Virial components:
Potential Energy   :      -1752.71662914168792 Eh          -47693.84419 eV
Kinetic Energy     :        874.34651664523039 Eh           23792.17829 eV
Virial Ratio       :          2.00460183208217

DFT components:
N(Alpha)           :       70.000007953668 electrons
N(Beta)            :       70.000007953668 electrons
N(Total)           :      140.000015907336 electrons
E(X)               :      -93.681079125176 Eh       
E(C)               :       -5.637535441735 Eh       
E(XC)              :      -99.318614566911 Eh       

CPCM Solvation Model Properties:
Surface-charge          :         -1.02882806146076
Corrected charge        :         -1.00000000000000
Outlying charge corr.   :          0.00004612049044 Eh               0.00126 eV
Free-energy (cav+disp)  :  This term is not implemented in the current solvation scheme

---------------
SCF CONVERGENCE
---------------

  Last Energy change         ...    1.4925e-08  Tolerance :   1.0000e-08
  Last MAX-Density change    ...    7.2149e-04  Tolerance :   1.0000e-07
  Last RMS-Density change    ...    6.8610e-06  Tolerance :   5.0000e-09
  Last DIIS Error            ...    2.1723e-03  Tolerance :   5.0000e-07
  Last Orbital Gradient      ...    1.5295e-06  Tolerance :   1.0000e-05
  Last Orbital Rotation      ...    4.7376e-06  Tolerance :   1.0000e-05


----------------
ORBITAL ENERGIES
----------------

  NO   OCC          E(Eh)            E(eV) 
   0   2.0000     -19.195922      -522.3476 
   1   2.0000     -19.116468      -520.1855 
   2   2.0000     -14.423692      -392.4886 
   3   2.0000     -14.368737      -390.9932 
   4   2.0000     -10.336452      -281.2692 
   5   2.0000     -10.274071      -279.5717 
   6   2.0000     -10.268371      -279.4166 
   7   2.0000     -10.263639      -279.2878 
   8   2.0000     -10.232299      -278.4350 
   9   2.0000     -10.225835      -278.2591 
  10   2.0000     -10.221812      -278.1497 
  11   2.0000     -10.212925      -277.9078 
  12   2.0000     -10.211955      -277.8814 
  13   2.0000     -10.203274      -277.6452 
  14   2.0000     -10.201116      -277.5865 
  15   2.0000     -10.197412      -277.4857 
  16   2.0000     -10.196703      -277.4664 
  17   2.0000     -10.192445      -277.3505 
  18   2.0000     -10.191249      -277.3180 
  19   2.0000     -10.188599      -277.2459 
  20   2.0000      -1.132298       -30.8114 
  21   2.0000      -1.047091       -28.4928 
  22   2.0000      -1.019863       -27.7519 
  23   2.0000      -0.963026       -26.2053 
  24   2.0000      -0.901684       -24.5361 
  25   2.0000      -0.863723       -23.5031 
  26   2.0000      -0.838483       -22.8163 
  27   2.0000      -0.805318       -21.9138 
  28   2.0000      -0.778712       -21.1898 
  29   2.0000      -0.756184       -20.5768 
  30   2.0000      -0.729088       -19.8395 
  31   2.0000      -0.723076       -19.6759 
  32   2.0000      -0.696630       -18.9563 
  33   2.0000      -0.678285       -18.4571 
  34   2.0000      -0.662271       -18.0213 
  35   2.0000      -0.647795       -17.6274 
  36   2.0000      -0.602581       -16.3971 
  37   2.0000      -0.589255       -16.0344 
  38   2.0000      -0.553572       -15.0635 
  39   2.0000      -0.549836       -14.9618 
  40   2.0000      -0.545088       -14.8326 
  41   2.0000      -0.536380       -14.5957 
  42   2.0000      -0.507135       -13.7998 
  43   2.0000      -0.504965       -13.7408 
  44   2.0000      -0.500417       -13.6170 
  45   2.0000      -0.490348       -13.3431 
  46   2.0000      -0.483411       -13.1543 
  47   2.0000      -0.469655       -12.7800 
  48   2.0000      -0.466078       -12.6826 
  49   2.0000      -0.455316       -12.3898 
  50   2.0000      -0.450210       -12.2508 
  51   2.0000      -0.441867       -12.0238 
  52   2.0000      -0.428440       -11.6584 
  53   2.0000      -0.423350       -11.5199 
  54   2.0000      -0.413184       -11.2433 
  55   2.0000      -0.412972       -11.2375 
  56   2.0000      -0.406286       -11.0556 
  57   2.0000      -0.401963       -10.9380 
  58   2.0000      -0.394310       -10.7297 
  59   2.0000      -0.388610       -10.5746 
  60   2.0000      -0.380842       -10.3632 
  61   2.0000      -0.375875       -10.2281 
  62   2.0000      -0.360055        -9.7976 
  63   2.0000      -0.345205        -9.3935 
  64   2.0000      -0.333927        -9.0866 
  65   2.0000      -0.305166        -8.3040 
  66   2.0000      -0.296880        -8.0785 
  67   2.0000      -0.271587        -7.3903 
  68   2.0000      -0.264133        -7.1874 
  69   2.0000      -0.233249        -6.3470 
  70   0.0000      -0.108163        -2.9433 
  71   0.0000      -0.073593        -2.0026 
  72   0.0000      -0.037920        -1.0319 
  73   0.0000      -0.007729        -0.2103 
  74   0.0000       0.021602         0.5878 
  75   0.0000       0.027975         0.7612 
  76   0.0000       0.039010         1.0615 
  77   0.0000       0.053592         1.4583 
  78   0.0000       0.058148         1.5823 
  79   0.0000       0.068322         1.8591 
  80   0.0000       0.073512         2.0004 
*Only the first 10 virtual orbitals were printed.

                    ********************************
                    * MULLIKEN POPULATION ANALYSIS *
                    ********************************

-----------------------
MULLIKEN ATOMIC CHARGES
-----------------------
   0 C :   -0.124032
   1 C :   -0.088993
   2 C :   -0.191406
   3 C :    0.207122
   4 C :    0.272956
   5 O :   -0.534727
   6 C :    0.225767
   7 C :   -0.196888
   8 C :   -0.263823
   9 C :   -0.063997
  10 C :    0.415359
  11 N :   -0.179803
  12 C :    0.104011
  13 C :   -0.032155
  14 C :   -0.148252
  15 C :    0.664361
  16 O :   -0.586258
  17 N :   -0.201955
  18 C :   -0.249696
  19 C :   -0.268389
  20 H :    0.159980
  21 H :    0.150425
  22 H :    0.145866
  23 H :    0.151091
  24 H :    0.143512
  25 H :    0.146507
  26 H :    0.120656
  27 H :    0.121946
  28 H :    0.122868
  29 H :    0.121567
  30 H :    0.119221
  31 H :    0.183317
  32 H :    0.150011
  33 H :    0.156167
  34 H :    0.247663
Sum of atomic charges:    1.0000000

--------------------------------
MULLIKEN REDUCED ORBITAL CHARGES
--------------------------------
  0 C s       :     3.219201  s :     3.219201
      pz      :     0.979474  p :     2.826363
      px      :     0.917150
      py      :     0.929739
      dz2     :     0.013036  d :     0.078469
      dxz     :     0.011232
      dyz     :     0.016299
      dx2y2   :     0.017175
      dxy     :     0.020728

  1 C s       :     3.191265  s :     3.191265
      pz      :     0.932258  p :     2.808536
      px      :     0.940845
      py      :     0.935432
      dz2     :     0.015489  d :     0.089192
      dxz     :     0.017607
      dyz     :     0.010629
      dx2y2   :     0.021072
      dxy     :     0.024395

  2 C s       :     3.227800  s :     3.227800
      pz      :     0.972133  p :     2.881065
      px      :     0.952718
      py      :     0.956214
      dz2     :     0.008190  d :     0.082541
      dxz     :     0.021094
      dyz     :     0.008049
      dx2y2   :     0.019378
      dxy     :     0.025830

  3 C s       :     3.202010  s :     3.202010
      pz      :     0.796979  p :     2.405888
      px      :     0.867497
      py      :     0.741412
      dz2     :     0.033368  d :     0.184980
      dxz     :     0.040888
      dyz     :     0.015299
      dx2y2   :     0.050693
      dxy     :     0.044732

  4 C s       :     3.358308  s :     3.358308
      pz      :     0.954735  p :     2.238653
      px      :     0.560852
      py      :     0.723066
      dz2     :     0.020139  d :     0.130083
      dxz     :     0.024650
      dyz     :     0.018733
      dx2y2   :     0.036676
      dxy     :     0.029886

  5 O s       :     3.859163  s :     3.859163
      pz      :     1.645107  p :     4.633123
      px      :     1.457255
      py      :     1.530761
      dz2     :     0.008203  d :     0.042440
      dxz     :     0.005874
      dyz     :     0.009335
      dx2y2   :     0.011360
      dxy     :     0.007669

  6 C s       :     3.028724  s :     3.028724
      pz      :     0.876531  p :     2.591877
      px      :     0.877784
      py      :     0.837562
      dz2     :     0.022101  d :     0.153632
      dxz     :     0.029473
      dyz     :     0.022129
      dx2y2   :     0.039912
      dxy     :     0.040017

  7 C s       :     3.258595  s :     3.258595
      pz      :     0.932163  p :     2.848642
      px      :     0.984684
      py      :     0.931795
      dz2     :     0.008542  d :     0.089650
      dxz     :     0.021682
      dyz     :     0.010458
      dx2y2   :     0.029257
      dxy     :     0.019710

  8 C s       :     3.314525  s :     3.314525
      pz      :     0.965861  p :     2.864555
      px      :     0.933764
      py      :     0.964931
      dz2     :     0.014379  d :     0.084742
      dxz     :     0.009619
      dyz     :     0.017916
      dx2y2   :     0.027325
      dxy     :     0.015503

  9 C s       :     3.083727  s :     3.083727
      pz      :     0.900743  p :     2.810411
      px      :     1.078541
      py      :     0.831127
      dz2     :     0.026437  d :     0.169859
      dxz     :     0.033367
      dyz     :     0.019431
      dx2y2   :     0.052249
      dxy     :     0.038375

 10 C s       :     2.963198  s :     2.963198
      pz      :     0.865056  p :     2.473314
      px      :     0.827568
      py      :     0.780690
      dz2     :     0.023526  d :     0.148129
      dxz     :     0.024892
      dyz     :     0.022079
      dx2y2   :     0.043290
      dxy     :     0.034342

 11 N s       :     3.439604  s :     3.439604
      pz      :     1.336001  p :     3.668052
      px      :     1.101673
      py      :     1.230379
      dz2     :     0.011364  d :     0.072146
      dxz     :     0.009104
      dyz     :     0.014946
      dx2y2   :     0.019671
      dxy     :     0.017062

 12 C s       :     3.144386  s :     3.144386
      pz      :     0.901155  p :     2.649820
      px      :     0.864444
      py      :     0.884220
      dz2     :     0.008941  d :     0.101783
      dxz     :     0.027798
      dyz     :     0.009810
      dx2y2   :     0.028843
      dxy     :     0.026392

 13 C s       :     3.137882  s :     3.137882
      pz      :     0.946851  p :     2.816983
      px      :     0.923642
      py      :     0.946490
      dz2     :     0.011733  d :     0.077289
      dxz     :     0.016018
      dyz     :     0.010389
      dx2y2   :     0.018019
      dxy     :     0.021130

 14 C s       :     3.242426  s :     3.242426
      pz      :     0.877967  p :     2.821783
      px      :     1.008690
      py      :     0.935126
      dz2     :     0.013572  d :     0.084042
      dxz     :     0.013077
      dyz     :     0.015132
      dx2y2   :     0.021401
      dxy     :     0.020861

 15 C s       :     2.819667  s :     2.819667
      pz      :     0.722799  p :     2.219441
      px      :     0.690641
      py      :     0.806001
      dz2     :     0.078301  d :     0.296531
      dxz     :     0.076138
      dyz     :     0.076145
      dx2y2   :     0.037069
      dxy     :     0.028878

 16 O s       :     3.878794  s :     3.878794
      pz      :     1.448414  p :     4.673431
      px      :     1.646308
      py      :     1.578708
      dz2     :     0.011080  d :     0.034034
      dxz     :     0.009563
      dyz     :     0.009401
      dx2y2   :     0.001735
      dxy     :     0.002255

 17 N s       :     3.438406  s :     3.438406
      pz      :     1.102060  p :     3.671938
      px      :     1.179460
      py      :     1.390417
      dz2     :     0.022954  d :     0.091612
      dxz     :     0.024911
      dyz     :     0.018504
      dx2y2   :     0.013375
      dxy     :     0.011867

 18 C s       :     3.249290  s :     3.249290
      pz      :     1.106892  p :     2.937878
      px      :     0.837062
      py      :     0.993924
      dz2     :     0.008285  d :     0.062529
      dxz     :     0.011508
      dyz     :     0.005952
      dx2y2   :     0.024020
      dxy     :     0.012762

 19 C s       :     3.253399  s :     3.253399
      pz      :     0.816914  p :     2.950487
      px      :     1.034732
      py      :     1.098841
      dz2     :     0.014700  d :     0.064502
      dxz     :     0.016061
      dyz     :     0.018650
      dx2y2   :     0.005474
      dxy     :     0.009617

 20 H s       :     0.815529  s :     0.815529
      pz      :     0.003630  p :     0.024491
      px      :     0.011079
      py      :     0.009783

 21 H s       :     0.826532  s :     0.826532
      pz      :     0.009228  p :     0.023043
      px      :     0.008574
      py      :     0.005241

 22 H s       :     0.831170  s :     0.831170
      pz      :     0.003967  p :     0.022964
      px      :     0.005867
      py      :     0.013131

 23 H s       :     0.824329  s :     0.824329
      pz      :     0.014792  p :     0.024580
      px      :     0.005501
      py      :     0.004288

 24 H s       :     0.833562  s :     0.833562
      pz      :     0.005336  p :     0.022926
      px      :     0.003393
      py      :     0.014197

 25 H s       :     0.830528  s :     0.830528
      pz      :     0.008485  p :     0.022965
      px      :     0.008960
      py      :     0.005520

 26 H s       :     0.852872  s :     0.852872
      pz      :     0.009033  p :     0.026472
      px      :     0.004919
      py      :     0.012520

 27 H s       :     0.851088  s :     0.851088
      pz      :     0.006055  p :     0.026966
      px      :     0.016921
      py      :     0.003990

 28 H s       :     0.850989  s :     0.850989
      pz      :     0.005436  p :     0.026142
      px      :     0.009619
      py      :     0.011087

 29 H s       :     0.852003  s :     0.852003
      pz      :     0.008975  p :     0.026429
      px      :     0.004502
      py      :     0.012953

 30 H s       :     0.854280  s :     0.854280
      pz      :     0.005945  p :     0.026498
      px      :     0.016532
      py      :     0.004021

 31 H s       :     0.790751  s :     0.790751
      pz      :     0.008732  p :     0.025932
      px      :     0.004273
      py      :     0.012927

 32 H s       :     0.823269  s :     0.823269
      pz      :     0.005606  p :     0.026721
      px      :     0.010009
      py      :     0.011105

 33 H s       :     0.817344  s :     0.817344
      pz      :     0.005442  p :     0.026489
      px      :     0.017149
      py      :     0.003899

 34 H s       :     0.702116  s :     0.702116
      pz      :     0.011269  p :     0.050221
      px      :     0.031298
      py      :     0.007654



                     *******************************
                     * LOEWDIN POPULATION ANALYSIS *
                     *******************************

----------------------
LOEWDIN ATOMIC CHARGES
----------------------
   0 C :   -0.085395
   1 C :   -0.107498
   2 C :   -0.079841
   3 C :   -0.118778
   4 C :   -0.029820
   5 O :    0.164895
   6 C :   -0.071754
   7 C :   -0.063864
   8 C :   -0.069870
   9 C :   -0.012488
  10 C :   -0.077574
  11 N :    0.219379
  12 C :   -0.032527
  13 C :   -0.098614
  14 C :    0.015503
  15 C :   -0.331628
  16 O :   -0.060806
  17 N :    0.093823
  18 C :   -0.203843
  19 C :   -0.209819
  20 H :    0.120640
  21 H :    0.119415
  22 H :    0.116343
  23 H :    0.121114
  24 H :    0.117586
  25 H :    0.117525
  26 H :    0.147978
  27 H :    0.150990
  28 H :    0.148736
  29 H :    0.154126
  30 H :    0.152839
  31 H :    0.161579
  32 H :    0.160364
  33 H :    0.161525
  34 H :    0.209758

-------------------------------
LOEWDIN REDUCED ORBITAL CHARGES
-------------------------------
  0 C s       :     2.775912  s :     2.775912
      pz      :     0.953243  p :     2.959130
      px      :     0.997017
      py      :     1.008870
      dz2     :     0.046551  d :     0.350353
      dxz     :     0.051764
      dyz     :     0.060837
      dx2y2   :     0.105179
      dxy     :     0.086021

  1 C s       :     2.777548  s :     2.777548
      pz      :     0.920646  p :     2.949933
      px      :     1.044236
      py      :     0.985051
      dz2     :     0.054675  d :     0.380016
      dxz     :     0.074638
      dyz     :     0.041275
      dx2y2   :     0.080120
      dxy     :     0.129308

  2 C s       :     2.774042  s :     2.774042
      pz      :     0.934206  p :     2.949807
      px      :     1.044506
      py      :     0.971096
      dz2     :     0.028342  d :     0.355992
      dxz     :     0.075441
      dyz     :     0.042076
      dx2y2   :     0.099340
      dxy     :     0.110793

  3 C s       :     2.722971  s :     2.722971
      pz      :     0.863673  p :     2.757088
      px      :     1.013720
      py      :     0.879695
      dz2     :     0.096913  d :     0.638720
      dxz     :     0.114501
      dyz     :     0.111995
      dx2y2   :     0.170520
      dxy     :     0.144791

  4 C s       :     2.701107  s :     2.701107
      pz      :     0.930728  p :     2.870720
      px      :     0.977497
      py      :     0.962495
      dz2     :     0.059316  d :     0.457993
      dxz     :     0.088030
      dyz     :     0.060052
      dx2y2   :     0.124950
      dxy     :     0.125644

  5 O s       :     3.276210  s :     3.276210
      pz      :     1.577734  p :     4.459242
      px      :     1.409099
      py      :     1.472409
      dz2     :     0.018385  d :     0.099653
      dxz     :     0.014385
      dyz     :     0.017770
      dx2y2   :     0.025628
      dxy     :     0.023485

  6 C s       :     2.708635  s :     2.708635
      pz      :     0.887844  p :     2.860481
      px      :     1.012528
      py      :     0.960109
      dz2     :     0.067577  d :     0.502638
      dxz     :     0.094259
      dyz     :     0.071449
      dx2y2   :     0.134079
      dxy     :     0.135274

  7 C s       :     2.770042  s :     2.770042
      pz      :     0.907767  p :     2.924355
      px      :     1.034991
      py      :     0.981598
      dz2     :     0.029332  d :     0.369467
      dxz     :     0.076998
      dyz     :     0.047873
      dx2y2   :     0.112750
      dxy     :     0.102513

  8 C s       :     2.771267  s :     2.771267
      pz      :     0.928551  p :     2.939520
      px      :     1.012991
      py      :     0.997978
      dz2     :     0.048115  d :     0.359084
      dxz     :     0.046387
      dyz     :     0.064707
      dx2y2   :     0.121458
      dxy     :     0.078416

  9 C s       :     2.705359  s :     2.705359
      pz      :     0.858817  p :     2.756116
      px      :     1.014410
      py      :     0.882890
      dz2     :     0.076756  d :     0.551013
      dxz     :     0.096813
      dyz     :     0.091645
      dx2y2   :     0.146175
      dxy     :     0.139624

 10 C s       :     2.707803  s :     2.707803
      pz      :     0.902772  p :     2.878785
      px      :     1.001225
      py      :     0.974788
      dz2     :     0.070218  d :     0.490986
      dxz     :     0.084182
      dyz     :     0.068437
      dx2y2   :     0.136600
      dxy     :     0.131548

 11 N s       :     2.939442  s :     2.939442
      pz      :     1.241685  p :     3.620568
      px      :     1.175993
      py      :     1.202890
      dz2     :     0.030439  d :     0.220612
      dxz     :     0.028643
      dyz     :     0.040126
      dx2y2   :     0.070770
      dxy     :     0.050635

 12 C s       :     2.788741  s :     2.788741
      pz      :     0.880257  p :     2.812234
      px      :     1.016986
      py      :     0.914992
      dz2     :     0.036144  d :     0.431551
      dxz     :     0.097086
      dyz     :     0.048084
      dx2y2   :     0.113142
      dxy     :     0.137096

 13 C s       :     2.778211  s :     2.778211
      pz      :     0.937146  p :     2.970033
      px      :     1.039672
      py      :     0.993215
      dz2     :     0.041246  d :     0.350369
      dxz     :     0.069766
      dyz     :     0.041764
      dx2y2   :     0.080307
      dxy     :     0.117287

 14 C s       :     2.785015  s :     2.785015
      pz      :     0.862953  p :     2.848003
      px      :     1.005397
      py      :     0.979653
      dz2     :     0.045519  d :     0.351479
      dxz     :     0.050461
      dyz     :     0.061652
      dx2y2   :     0.111259
      dxy     :     0.082588

 15 C s       :     2.723861  s :     2.723861
      pz      :     0.976786  p :     2.613559
      px      :     0.822282
      py      :     0.814491
      dz2     :     0.267774  d :     0.994208
      dxz     :     0.264624
      dyz     :     0.218646
      dx2y2   :     0.134455
      dxy     :     0.108709

 16 O s       :     3.429983  s :     3.429983
      pz      :     1.495766  p :     4.562458
      px      :     1.579089
      py      :     1.487603
      dz2     :     0.024828  d :     0.068366
      dxz     :     0.021630
      dyz     :     0.014928
      dx2y2   :     0.003434
      dxy     :     0.003546

 17 N s       :     2.921396  s :     2.921396
      pz      :     1.176681  p :     3.712018
      px      :     1.221067
      py      :     1.314270
      dz2     :     0.071616  d :     0.272763
      dxz     :     0.074557
      dyz     :     0.053591
      dx2y2   :     0.037557
      dxy     :     0.035443

 18 C s       :     2.836398  s :     2.836398
      pz      :     1.106080  p :     3.072743
      px      :     0.931368
      py      :     1.035296
      dz2     :     0.043586  d :     0.294703
      dxz     :     0.066759
      dyz     :     0.022996
      dx2y2   :     0.096433
      dxy     :     0.064929

 19 C s       :     2.837327  s :     2.837327
      pz      :     0.908831  p :     3.075171
      px      :     1.061381
      py      :     1.104960
      dz2     :     0.074013  d :     0.297320
      dxz     :     0.084965
      dyz     :     0.063116
      dx2y2   :     0.020808
      dxy     :     0.054419

 20 H s       :     0.814996  s :     0.814996
      pz      :     0.010293  p :     0.064364
      px      :     0.028107
      py      :     0.025964

 21 H s       :     0.819805  s :     0.819805
      pz      :     0.022297  p :     0.060779
      px      :     0.023535
      py      :     0.014948

 22 H s       :     0.822801  s :     0.822801
      pz      :     0.010933  p :     0.060857
      px      :     0.016036
      py      :     0.033888

 23 H s       :     0.814835  s :     0.814835
      pz      :     0.038167  p :     0.064051
      px      :     0.013783
      py      :     0.012101

 24 H s       :     0.821641  s :     0.821641
      pz      :     0.015409  p :     0.060773
      px      :     0.010182
      py      :     0.035182

 25 H s       :     0.821713  s :     0.821713
      pz      :     0.022936  p :     0.060762
      px      :     0.022074
      py      :     0.015752

 26 H s       :     0.789946  s :     0.789946
      pz      :     0.020810  p :     0.062076
      px      :     0.013685
      py      :     0.027581

 27 H s       :     0.786229  s :     0.786229
      pz      :     0.015332  p :     0.062781
      px      :     0.035850
      py      :     0.011599

 28 H s       :     0.790055  s :     0.790055
      pz      :     0.013845  p :     0.061209
      px      :     0.022569
      py      :     0.024795

 29 H s       :     0.784369  s :     0.784369
      pz      :     0.020305  p :     0.061505
      px      :     0.012934
      py      :     0.028266

 30 H s       :     0.785365  s :     0.785365
      pz      :     0.014882  p :     0.061796
      px      :     0.035144
      py      :     0.011769

 31 H s       :     0.774636  s :     0.774636
      pz      :     0.020818  p :     0.063786
      px      :     0.012815
      py      :     0.030153

 32 H s       :     0.777214  s :     0.777214
      pz      :     0.014149  p :     0.062423
      px      :     0.023255
      py      :     0.025018

 33 H s       :     0.775723  s :     0.775723
      pz      :     0.013653  p :     0.062752
      px      :     0.037668
      py      :     0.011431

 34 H s       :     0.672379  s :     0.672379
      pz      :     0.027407  p :     0.117863
      px      :     0.070441
      py      :     0.020014



                      *****************************
                      * MAYER POPULATION ANALYSIS *
                      *****************************

  NA   - Mulliken gross atomic population
  ZA   - Total nuclear charge
  QA   - Mulliken gross atomic charge
  VA   - Mayer's total valence
  BVA  - Mayer's bonded valence
  FA   - Mayer's free valence

  ATOM       NA         ZA         QA         VA         BVA        FA
  0 C      6.1240     6.0000    -0.1240     3.8711     3.8711    -0.0000
  1 C      6.0890     6.0000    -0.0890     3.8619     3.8619    -0.0000
  2 C      6.1914     6.0000    -0.1914     3.7934     3.7934     0.0000
  3 C      5.7929     6.0000     0.2071     3.7028     3.7028    -0.0000
  4 C      5.7270     6.0000     0.2730     3.4801     3.4801    -0.0000
  5 O      8.5347     8.0000    -0.5347     1.9758     1.9758    -0.0000
  6 C      5.7742     6.0000     0.2258     3.8868     3.8868    -0.0000
  7 C      6.1969     6.0000    -0.1969     3.7396     3.7396    -0.0000
  8 C      6.2638     6.0000    -0.2638     3.7924     3.7924    -0.0000
  9 C      6.0640     6.0000    -0.0640     3.8032     3.8032    -0.0000
 10 C      5.5846     6.0000     0.4154     3.8095     3.8095    -0.0000
 11 N      7.1798     7.0000    -0.1798     3.5494     3.5494    -0.0000
 12 C      5.8960     6.0000     0.1040     3.9315     3.9315    -0.0000
 13 C      6.0322     6.0000    -0.0322     3.8765     3.8765    -0.0000
 14 C      6.1483     6.0000    -0.1483     3.9570     3.9570     0.0000
 15 C      5.3356     6.0000     0.6644     4.2311     4.2311    -0.0000
 16 O      8.5863     8.0000    -0.5863     2.0244     2.0244    -0.0000
 17 N      7.2020     7.0000    -0.2020     3.2660     3.2660    -0.0000
 18 C      6.2497     6.0000    -0.2497     3.8228     3.8228     0.0000
 19 C      6.2684     6.0000    -0.2684     3.8334     3.8334     0.0000
 20 H      0.8400     1.0000     0.1600     0.9670     0.9670     0.0000
 21 H      0.8496     1.0000     0.1504     0.9477     0.9477     0.0000
 22 H      0.8541     1.0000     0.1459     0.9496     0.9496     0.0000
 23 H      0.8489     1.0000     0.1511     0.9802     0.9802     0.0000
 24 H      0.8565     1.0000     0.1435     0.9499     0.9499     0.0000
 25 H      0.8535     1.0000     0.1465     0.9511     0.9511     0.0000
 26 H      0.8793     1.0000     0.1207     0.9718     0.9718    -0.0000
 27 H      0.8781     1.0000     0.1219     0.9765     0.9765    -0.0000
 28 H      0.8771     1.0000     0.1229     0.9646     0.9646     0.0000
 29 H      0.8784     1.0000     0.1216     0.9742     0.9742    -0.0000
 30 H      0.8808     1.0000     0.1192     0.9739     0.9739    -0.0000
 31 H      0.8167     1.0000     0.1833     0.9580     0.9580    -0.0000
 32 H      0.8500     1.0000     0.1500     0.9619     0.9619     0.0000
 33 H      0.8438     1.0000     0.1562     0.9646     0.9646     0.0000
 34 H      0.7523     1.0000     0.2477     0.9452     0.9452    -0.0000

  Mayer bond orders larger than 0.100000
B(  0-C ,  1-C ) :   1.2931 B(  0-C ,  3-C ) :   1.4077 B(  0-C , 27-H ) :   0.9808 
B(  1-C ,  2-C ) :   1.4029 B(  1-C , 28-H ) :   0.9912 B(  2-C ,  6-C ) :   1.2573 
B(  2-C , 26-H ) :   0.9931 B(  3-C ,  4-C ) :   1.1889 B(  3-C ,  5-O ) :   0.9016 
B(  4-C ,  6-C ) :   1.2941 B(  4-C ,  9-C ) :   1.0007 B(  5-O , 15-C ) :   0.9243 
B(  6-C ,  7-C ) :   1.1758 B(  7-C ,  8-C ) :   1.4561 B(  7-C , 29-H ) :   1.0087 
B(  8-C , 10-C ) :   1.1409 B(  8-C , 30-H ) :   1.0161 B(  9-C , 10-C ) :   1.3118 
B(  9-C , 11-N ) :   1.2712 B( 10-C , 14-C ) :   1.2928 B( 11-N , 12-C ) :   1.3151 
B( 11-N , 34-H ) :   0.8657 B( 12-C , 13-C ) :   1.4260 B( 12-C , 31-H ) :   0.9384 
B( 13-C , 14-C ) :   1.3965 B( 13-C , 32-H ) :   0.9592 B( 14-C , 33-H ) :   0.9540 
B( 15-C , 16-O ) :   1.8661 B( 15-C , 17-N ) :   1.3834 B( 17-N , 18-C ) :   0.9289 
B( 17-N , 19-C ) :   0.9336 B( 18-C , 23-H ) :   0.9617 B( 18-C , 24-H ) :   0.9583 
B( 18-C , 25-H ) :   0.9615 B( 19-C , 20-H ) :   0.9587 B( 19-C , 21-H ) :   0.9561 
B( 19-C , 22-H ) :   0.9618 

-------
TIMINGS
-------

Total SCF time: 0 days 0 hours 6 min 15 sec 

Total time                  ....     375.208 sec
Sum of individual times     ....     373.707 sec  ( 99.6%)

SCF preparation             ....       2.786 sec  (  0.7%)
Fock matrix formation       ....     363.976 sec  ( 97.0%)
  Startup                   ....       0.314 sec  (  0.1% of F)
  Split-RI-J                ....      28.410 sec  (  7.8% of F)
  Chain of spheres X        ....     252.390 sec  ( 69.3% of F)
  XC integration            ....      34.495 sec  (  9.5% of F)
    XC Preparation          ....       0.000 sec  (  0.0% of XC)
    Basis function eval.    ....       8.229 sec  ( 23.9% of XC)
    Density eval.           ....       8.377 sec  ( 24.3% of XC)
    XC-Functional eval.     ....       0.598 sec  (  1.7% of XC)
    XC-Potential eval.      ....       8.798 sec  ( 25.5% of XC)
  CPCM terms                ....      45.502 sec  ( 12.5% of F)
Diagonalization             ....       0.000 sec  (  0.0%)
Density matrix formation    ....       1.271 sec  (  0.3%)
Total Energy calculation    ....       0.242 sec  (  0.1%)
Population analysis         ....       0.130 sec  (  0.0%)
Orbital Transformation      ....       0.411 sec  (  0.1%)
Orbital Orthonormalization  ....       0.000 sec  (  0.0%)
DIIS solution               ....       3.612 sec  (  1.0%)
SOSCF solution              ....       1.252 sec  (  0.3%)
Finished LeanSCF after 375.4 sec

Maximum memory used throughout the entire LEANSCF-calculation: 130.1 MB

------------------------------------------------------------------------------
                         ORCA PROPERTY INTEGRAL CALCULATIONS
------------------------------------------------------------------------------

GBWName                                   ... HBQ-H.gbw
Number of atoms                           ...     35
Number of basis functions                 ...    570
Max core memory                           ...   1024 MB

Dipole integrals                          ... YES
Quadrupole integrals                      ...  NO
Linear momentum integrals                 ... YES
Angular momentum integrals                ... YES
Higher moments length integrals           ...  NO
Higher moments velocity integrals         ...  NO
Kinetic energy integrals                  ...  NO
GIAO right hand sides                     ...  NO
GIAO dipole derivative integrals          ...  NO
SOC integrals                             ...  NO
EPR diamagnetic integrals (GIAO)          ...  NO
EPR gauge integrals                       ...  NO
Field gradient integrals                  ...  NO (   0 nuclei)
Spin-dipole/Fermi contact integrals       ...  NO (   0 nuclei)
Contact density integrals                 ...  NO (   0 nuclei)
Nucleus-orbit integrals                   ...  NO (   0 nuclei)
Geometric perturbations                   ...  NO (  35 nuclei)

Choice of electric origin   ... Center of mass
Position of electric origin ... ( -2.5712,  2.1591,  0.9699) 
Choice of magnetic origin   ... GIAO
Position of magnetic origin ... (  0.0000,  0.0000,  0.0000) 

Calculating integrals                     ... Electric Dipole (Length)     done (  0.3 sec)
Calculating integrals                     ... Linear Momentum              done (  0.4 sec)
Calculating integrals                     ... Angular Momentum  (ElOri)    done (  0.4 sec)

Property integrals calculated in   1.1 sec

Maximum memory used throughout the entire PROPINT-calculation: 71.2 MB
------------------------------------------------------------------------------
                        ORCA TD-DFT/TDA CALCULATION
------------------------------------------------------------------------------

Input orbitals are from        ... HBQ-H.gbw
CI-vector output               ... HBQ-H.cis
Solver                         ... FN-2001
Tamm-Dancoff approximation     ... operative
CIS-Integral strategy          ... AO-integrals
Integral handling              ... AO integral Direct
Max. core memory used          ... 512 MB
Reference state                ... RHF
Generation of triplets         ... off
Follow IRoot                   ... off
Number of operators            ... 1
Orbital ranges used for CIS calculation:
 Operator 0:  Orbitals  20... 69  to  70...569
XAS localization array:
 Operator 0:  Orbitals  -1... -1

-------------------
XC-INTEGRATION GRID
-------------------

General Integration Accuracy     IntAcc      ... 3.467
Radial Grid Type                 RadialGrid  ... OptM3 with GC (2021)
Angular Grid (max. ang.)         AngularGrid ... 1 (Lebedev-50)
Angular grid pruning method      GridPruning ... 4 (adaptive)
Weight generation scheme         WeightScheme... mBecke (2022)
Basis function cutoff            BFCut       ... 1.0000e-11
Integration weight cutoff        WCut        ... 1.0000e-14
Partially contracted basis set               ... off
Rotationally invariant grid construction     ... off
Angular grids for H and He will be reduced by one unit

Total number of grid points                  ...    24531
Total number of batches                      ...      402
Average number of points per batch           ...       61
Average number of grid points per atom       ...      701

---------------------
COSX-INTEGRATION GRID
---------------------

General Integration Accuracy     IntAcc      ... 3.067
Radial Grid Type                 RadialGrid  ... OptM3 with GC (2021)
Angular Grid (max. ang.)         AngularGrid ... 1 (Lebedev-50)
Angular grid pruning method      GridPruning ... 4 (adaptive)
Weight generation scheme         WeightScheme... mBecke (2022)
Basis function cutoff            BFCut       ... 1.0000e-11
Integration weight cutoff        WCut        ... 1.0000e-14
Partially contracted basis set               ... on
Rotationally invariant grid construction     ... off
Angular grids for H and He will be reduced by one unit

Total number of grid points                  ...    11333
Total number of batches                      ...      112
Average number of points per batch           ...      101
Average number of grid points per atom       ...      324

---------------
TD-DFT XC SETUP
---------------

DFT calculation                         ... on
Name of the grid file                   ... HBQ-H.grid_cis.tmp
RI-approximation                        ... on
Aux-basis dimension                     ... 1745
Exchange functional (TD-DFT)            ... B88
   X-Alpha parameter    XAlpha (TD-DFT) ...  0.666667
   Becke's b parameter  XBeta (TD-DFT)  ...  0.004200
Correlation functional (TD-DFT)         ... LYP
 LDA part of GGA corr.  LDAOpt (TD-DFT) ... VWN-5
Hybrid DFT                              ... on
   Exchange mixing (TD-DFT)             ...  0.200
   GGA exch. scaling (TD-DFT)           ...  0.720
   GGA corr. scaling (TD-DFT)           ...  0.810

Building densities             ... done
Calculating rho(r) on the grid ... done
Building xc-kernel on the grid ... done
                    *** TD-DFT CALCULATION INITIALIZED ***

-----------------------------
    LR-CPCM (equilibrium)
-----------------------------

Setting up LR-CPCM             ... done

------------------------
DAVIDSON-DIAGONALIZATION
------------------------

Dimension of the eigenvalue problem            ...  25000
Number of roots to be determined               ...      1
Maximum size of the expansion space            ...     10
Maximum number of iterations                   ...    100
Convergence tolerance for the residual         ...    2.500e-07
Convergence tolerance for the energies         ...    2.500e-07
Orthogonality tolerance                        ...    1.000e-14
Level Shift                                    ...    0.000e+00
Constructing the preconditioner                ... o.k.
Building the initial guess                     ... o.k.
Number of trial vectors determined             ...     10


                       ****Iteration    0****
   Time for iteration     :  TOTAL=21.7 TRAFO=0.0 RIJ=3.6 COSX=8.3 XC=1.5
   Size of expansion space: 3
   Lowest Energy          :     0.117403903648
   Maximum Energy change  :     0.117403903648 (vector 0)
   Maximum residual norm  :     0.010456146162

                       ****Iteration    1****
   Time for iteration     :  TOTAL=16.4 TRAFO=0.0 RIJ=2.5 COSX=6.8 XC=0.5
   Size of expansion space: 4
   Lowest Energy          :     0.106822268062
   Maximum Energy change  :     0.010581635586 (vector 0)
   Maximum residual norm  :     0.000216090976

                       ****Iteration    2****
   Time for iteration     :  TOTAL=16.6 TRAFO=0.0 RIJ=2.5 COSX=7.0 XC=0.5
   Size of expansion space: 5
   Lowest Energy          :     0.106563059332
   Maximum Energy change  :     0.000259208730 (vector 0)
   Maximum residual norm  :     0.000034843578

                       ****Iteration    3****
   Time for iteration     :  TOTAL=16.6 TRAFO=0.2 RIJ=2.5 COSX=6.9 XC=0.5
   Size of expansion space: 6
   Lowest Energy          :     0.106503756918
   Maximum Energy change  :     0.000059302414 (vector 0)
   Maximum residual norm  :     0.000004887303

                       ****Iteration    4****
   Time for iteration     :  TOTAL=16.9 TRAFO=0.0 RIJ=2.7 COSX=7.1 XC=0.5
   Size of expansion space: 7
   Lowest Energy          :     0.106498443127
   Maximum Energy change  :     0.000005313790 (vector 0)
   Maximum residual norm  :     0.000000702532

                       ****Iteration    5****
   Time for iteration     :  TOTAL=16.9 TRAFO=0.0 RIJ=2.5 COSX=7.0 XC=0.5
   Size of expansion space: 8
   Lowest Energy          :     0.106497650196
   Maximum Energy change  :     0.000000792931 (vector 0)
   Maximum residual norm  :     0.000000052927

      *** CONVERGENCE OF RESIDUAL NORM REACHED ***

Storing the converged CI vectors               ... HBQ-H.cis1

                 *** DAVIDSON DONE ***

Total time for solving the CIS problem:   105.728sec

------------------------------------
TD-DFT/TDA EXCITED STATES (SINGLETS)
------------------------------------

the weight of the individual excitations are printed if larger than 1.0e-02

STATE  1:  E=   0.106498 au      2.898 eV    23373.5 cm**-1 <S**2> =   0.000000 Mult 1
    67a ->  71a  :     0.013817 (c= -0.11754512)
    69a ->  70a  :     0.966468 (c= -0.98309096)


-----------------------------
TD-DFT/TDA-EXCITATION SPECTRA
-----------------------------

Center of mass = ( -2.5712,  2.1591,  0.9699)
Generating CIS transition densities           ... done

----------------------------------------------------------------------------------------------------
                     ABSORPTION SPECTRUM VIA TRANSITION ELECTRIC DIPOLE MOMENTS    
----------------------------------------------------------------------------------------------------
     Transition      Energy     Energy  Wavelength fosc(D2)      D2        DX        DY        DZ   
                      (eV)      (cm-1)    (nm)                 (au**2)    (au)      (au)      (au)  
----------------------------------------------------------------------------------------------------
  0-1A  ->  1-1A    2.897948   23373.5   427.8   0.255013116   3.59181   1.66971   0.88266   0.15748

----------------------------------------------------------------------------------------------------
                     ABSORPTION SPECTRUM VIA TRANSITION VELOCITY DIPOLE MOMENTS    
----------------------------------------------------------------------------------------------------
     Transition      Energy     Energy  Wavelength fosc(P2)      P2        PX        PY        PZ   
                      (eV)      (cm-1)    (nm)                 (au**2)    (au)      (au)      (au)  
----------------------------------------------------------------------------------------------------
  0-1A  ->  1-1A    2.897948   23373.5   427.8   0.061074083   0.00976  -0.08795  -0.04305  -0.01297

------------------------------------------------------------------------------------------
                     CD SPECTRUM VIA TRANSITION ELECTRIC DIPOLE MOMENTS    
------------------------------------------------------------------------------------------
     Transition      Energy     Energy  Wavelength    R        MX        MY        MZ   
                      (eV)      (cm-1)    (nm)   (1e40*cgs)   (au)      (au)      (au)  
------------------------------------------------------------------------------------------
  0-1A  ->  1-1A    2.897948   23373.5   427.8    1.70442  -0.07038   0.18696  -0.32465

------------------------------------------------------------------------------------------
                     CD SPECTRUM VIA TRANSITION VELOCITY DIPOLE MOMENTS    
------------------------------------------------------------------------------------------
     Transition      Energy     Energy  Wavelength    R        MX        MY        MZ   
                      (eV)      (cm-1)    (nm)   (1e40*cgs)   (au)      (au)      (au)  
------------------------------------------------------------------------------------------
  0-1A  ->  1-1A    2.897948   23373.5   427.8   10.41358  -0.07038   0.18696  -0.32465

Total run time:      107.340 sec

           *** ORCA-CIS/TD-DFT FINISHED WITHOUT ERROR ***
-----------------------
CIS/TD-DFT TOTAL ENERGY
-----------------------

    E(SCF)  =   -878.370112496 Eh
    DE(CIS) =      0.106497650 Eh (Root  1)
    ----------------------------- ---------
    E(tot)  =   -878.263614846 Eh


------------------------
TD-DFT GRADIENT XC SETUP
------------------------

Building densities                     ... done
Calculating rho(r) on the grid         ... done
Building xc-kernel on the grid         ... done
Building xc 3rd derivative on the grid ... done
                *** TD-DFT GRADIENT CALCULATION INITIALIZED ***

--------------------------
TD-DFT/TDA RELAXED DENSITY
--------------------------

Reference wavefunction             ... RHF
State of interest                  ... 1
Basis dimension                    ... 570
DFT-XC contribution needed         ... YES
RI-approximation                   ... YES
Do Coulomb                         ... YES
Do Exchange                        ... YES
Need Hartree-Fock Exchange         ... YES
facj, facx                         ...  2.000, -0.200
Conventional                       ... NO
Range separation                   ... NO
Triplet state                      ... NO
Spin Flip                          ... NO
CIS-vectors being read from        ... HBQ-H.cis
 => Number of Vectors found: 1
 => Orbital Window: 20...69 -> 70...569

Reading the CIS file                     ... done
Norm of the CI vector                    ... 1.000000000
Reading the CPCM file                    ... done
Making the CIS (pseudo)densities         ... done
Making operators G(D) and Q(T)           ... (SHARK-ok)done
Transforming the Fock operators          ... done
Making the frozen-core relaxed density   ... done
Constructing the G(H) operator           ... (SHARK-ok)done
Transforming the G(H) operator           ... done
Calculating the CIS Lagrangian           ... done
Solving the Z-vector equations           ... 

Using XC Grid                  ... (HBQ-H.grid_cpscf.tmp) 
Recalculating density on grid  ... (HBQ-H.grho_cpscf0.tmp) done
Calculating the xc-kernel      ... (HBQ-H.fxc_cpscf0.tmp) done

-------------------
SHARK CP-SCF DRIVER
-------------------

Dimension of the orbital basis          ...    570
Dimension of the CPSCF-problem          ...  35000
Number of operators                     ...      1
Max. number of iterations               ...    128
Convergence Tolerance                   ... 1.0e-04
Number of perturbations                 ...      1
Perturbation type                       ... REAL

----------------------------
POPLE LINEAR EQUATION SOLVER
----------------------------

  ITERATION   0:   ||err||_max =   1.6850e+00 (  16.4 sec)
  ITERATION   1:   ||err||_max =   9.0215e-02 (  17.2 sec)
  ITERATION   2:   ||err||_max =   1.9088e-02 (  16.4 sec)
  ITERATION   3:   ||err||_max =   6.4648e-03 (  16.6 sec)
  ITERATION   4:   ||err||_max =   2.3964e-03 (  17.0 sec)
  ITERATION   5:   ||err||_max =   1.0643e-03 (  16.7 sec)
  ITERATION   6:   ||err||_max =   3.1255e-04 (  16.8 sec)
  ITERATION   7:   ||err||_max =   1.3512e-04 (  16.7 sec)
  ITERATION   8:   ||err||_max =   3.5222e-05 (  16.8 sec)

Finalizing the relaxed density           ... done
Storing the relaxed density              ... done
Constructing the G(Z) operator           ... (SHARK-ok)done
Adding the CPCM contribution             ... done
Adding the XC terms                      ... done
Transforming the G(Z) operator           ... done
Making the W-matrix                      ... done
Finalizing the W-matrix                  ... done
Transforming the W-matrix                ... done
Nuc. rep. gradient        (SHARK) ... done (  0.0 sec)
HCore & Overlap gradient  (SHARK) ... done (  2.0 sec)
Split-RIJ-J gradient      (SHARK) ... done ( 11.6 sec)
COSX-gradient                     ... done (112.4 sec)
CPCM gradient                     ... done (  9.6 sec)
Dispersion correction             ... done (  0.0 sec)

-------------------
DISPERSION GRADIENT
-------------------

   1   C   :   -0.000558951   -0.000586834   -0.000115449
   2   C   :   -0.000489291   -0.000670153   -0.000239592
   3   C   :   -0.000236119   -0.000730453   -0.000378310
   4   C   :   -0.000438523   -0.000275533   -0.000051458
   5   C   :   -0.000011825   -0.000211015   -0.000065817
   6   O   :   -0.000235238    0.000066298    0.000093976
   7   C   :    0.000133972   -0.000567248   -0.000364538
   8   C   :    0.000573161   -0.000530387   -0.000458305
   9   C   :    0.000698686   -0.000383174   -0.000395529
  10   C   :    0.000255621    0.000261643    0.000111230
  11   C   :    0.000655703    0.000039767   -0.000126546
  12   N   :    0.000186020    0.000595227    0.000298437
  13   C   :    0.000191494    0.000700476    0.000365401
  14   C   :    0.000453140    0.000559763    0.000233184
  15   C   :    0.000744695    0.000350968    0.000040401
  16   C   :   -0.000567626    0.000248799   -0.000220617
  17   O   :   -0.000431377    0.000250955   -0.000496830
  18   N   :   -0.000375273    0.000285452    0.000256048
  19   C   :   -0.000468887    0.000294461    0.000037059
  20   C   :   -0.000071395    0.000104898    0.000685020
  21   H   :    0.000007910   -0.000030263    0.000442881
  22   H   :   -0.000010049   -0.000046297    0.000329337
  23   H   :    0.000072828    0.000153465    0.000333345
  24   H   :   -0.000238576    0.000132388   -0.000087072
  25   H   :   -0.000196310    0.000263510    0.000029204
  26   H   :   -0.000307761    0.000070714    0.000082165
  27   H   :   -0.000002326   -0.000335405   -0.000202580
  28   H   :   -0.000322135   -0.000236631   -0.000007492
  29   H   :   -0.000216824   -0.000256229   -0.000096299
  30   H   :    0.000212863   -0.000260495   -0.000210850
  31   H   :    0.000333259   -0.000143037   -0.000164209
  32   H   :   -0.000019918    0.000303983    0.000179017
  33   H   :    0.000211987    0.000230384    0.000090281
  34   H   :    0.000376418    0.000065363   -0.000048918
  35   H   :    0.000090648    0.000284638    0.000123423

Difference to translation invariance:
           :    0.0000000000   -0.0000000000   -0.0000000000

Difference to rotation invariance:
           :   -0.0000000000    0.0000000000   -0.0000000000

Norm of the Dispersion gradient    ...    0.0034052879
RMS gradient                       ...    0.0003323221
MAX gradient                       ...    0.0007446949

                 ---------------------------
                 EXCITED STATE GRADIENT DONE
                 ---------------------------

------------------
CARTESIAN GRADIENT
------------------

   1   C   :   -0.000457724   -0.000656773   -0.000162970
   2   C   :   -0.000423462   -0.000623667   -0.000165695
   3   C   :   -0.000444070   -0.000754274   -0.000372916
   4   C   :   -0.000320406   -0.000407109   -0.000125784
   5   C   :   -0.000128524   -0.000456844   -0.000202142
   6   O   :   -0.000450858    0.000041895   -0.000016794
   7   C   :    0.000196404   -0.000346492   -0.000226817
   8   C   :    0.000462017   -0.000324785   -0.000300169
   9   C   :    0.000559354   -0.000558476   -0.000477466
  10   C   :    0.000674094    0.000185264   -0.000037733
  11   C   :    0.000280869    0.000181648    0.000038150
  12   N   :    0.000267108    0.000633128    0.000378553
  13   C   :    0.000270458    0.000642156    0.000310431
  14   C   :    0.000383799    0.000515604    0.000221274
  15   C   :    0.000659030    0.000396167    0.000056934
  16   C   :   -0.000751258    0.000285135   -0.000384473
  17   O   :   -0.000233434    0.000215268   -0.000133463
  18   N   :   -0.000338787    0.000097623    0.000247280
  19   C   :   -0.000489261    0.000369679   -0.000022567
  20   C   :   -0.000059963    0.000227392    0.000799879
  21   H   :   -0.000112516    0.000070043    0.000466940
  22   H   :    0.000112863    0.000009717    0.000209197
  23   H   :    0.000002601   -0.000003882    0.000291936
  24   H   :   -0.000184384    0.000078528    0.000082233
  25   H   :   -0.000202635    0.000076292   -0.000020903
  26   H   :   -0.000136636    0.000118204    0.000008036
  27   H   :    0.000027827   -0.000220482   -0.000081834
  28   H   :   -0.000156728   -0.000196753    0.000038994
  29   H   :   -0.000113829   -0.000125948   -0.000016838
  30   H   :    0.000233742   -0.000095933   -0.000158708
  31   H   :    0.000176188   -0.000170232   -0.000147008
  32   H   :    0.000052003    0.000206503    0.000031664
  33   H   :    0.000066557    0.000096899    0.000006609
  34   H   :    0.000184506    0.000079492   -0.000008758
  35   H   :    0.000276194    0.000352076   -0.000027336

Difference to translation invariance:
           :   -0.0001188569   -0.0000629372    0.0000977360

Difference to rotation invariance:
           :   -0.0014588162    0.0027595536    0.0009420719

Norm of the Cartesian gradient     ...    0.0032479632
RMS gradient                       ...    0.0003169688
MAX gradient                       ...    0.0007998787

------------------------------------------------------------------------------
                  RELAXED CIS/TDA DENSITY POPULATION ANALYSIS
                                   IROOT 1
------------------------------------------------------------------------------
------------------------------------------------------------------------------
                           ORCA POPULATION ANALYSIS
------------------------------------------------------------------------------
Input electron density              ... HBQ-H.cispre.singlet.iroot1
BaseName (.gbw .S,...)              ... HBQ-H

                    ********************************
                    * MULLIKEN POPULATION ANALYSIS *
                    ********************************

-----------------------
MULLIKEN ATOMIC CHARGES
-----------------------
   0 C :   -0.064738
   1 C :   -0.093752
   2 C :   -0.109461
   3 C :    0.235493
   4 C :    0.284257
   5 O :   -0.489812
   6 C :    0.229144
   7 C :   -0.175062
   8 C :   -0.178231
   9 C :   -0.100742
  10 C :    0.408850
  11 N :   -0.256209
  12 C :    0.032176
  13 C :   -0.064811
  14 C :   -0.285912
  15 C :    0.665628
  16 O :   -0.576106
  17 N :   -0.197943
  18 C :   -0.250004
  19 C :   -0.268306
  20 H :    0.161463
  21 H :    0.153664
  22 H :    0.149168
  23 H :    0.153527
  24 H :    0.146653
  25 H :    0.149496
  26 H :    0.147894
  27 H :    0.147271
  28 H :    0.135461
  29 H :    0.132819
  30 H :    0.134821
  31 H :    0.159778
  32 H :    0.127146
  33 H :    0.128299
  34 H :    0.228080
Sum of atomic charges:    1.0000000

--------------------------------
MULLIKEN REDUCED ORBITAL CHARGES
--------------------------------
  0 C s       :     3.224507  s :     3.224507
      pz      :     0.910135  p :     2.757487
      px      :     0.928556
      py      :     0.918796
      dz2     :     0.013636  d :     0.082744
      dxz     :     0.012202
      dyz     :     0.016710
      dx2y2   :     0.018117
      dxy     :     0.022078
  1 C s       :     3.192076  s :     3.192076
      pz      :     0.946925  p :     2.817659
      px      :     0.930993
      py      :     0.939742
      dz2     :     0.012514  d :     0.084017
      dxz     :     0.016251
      dyz     :     0.011002
      dx2y2   :     0.021946
      dxy     :     0.022303
  2 C s       :     3.239591  s :     3.239591
      pz      :     0.873035  p :     2.779730
      px      :     0.968981
      py      :     0.937714
      dz2     :     0.008661  d :     0.090141
      dxz     :     0.023742
      dyz     :     0.008867
      dx2y2   :     0.021082
      dxy     :     0.027789
  3 C s       :     3.191611  s :     3.191611
      pz      :     0.760205  p :     2.382819
      px      :     0.889245
      py      :     0.733369
      dz2     :     0.033369  d :     0.190077
      dxz     :     0.043253
      dyz     :     0.015465
      dx2y2   :     0.050820
      dxy     :     0.047169
  4 C s       :     3.343351  s :     3.343351
      pz      :     0.947026  p :     2.238245
      px      :     0.557557
      py      :     0.733662
      dz2     :     0.019897  d :     0.134146
      dxz     :     0.026008
      dyz     :     0.020575
      dx2y2   :     0.040566
      dxy     :     0.027100
  5 O s       :     3.858989  s :     3.858989
      pz      :     1.609101  p :     4.587811
      px      :     1.461726
      py      :     1.516985
      dz2     :     0.008351  d :     0.043011
      dxz     :     0.005950
      dyz     :     0.009422
      dx2y2   :     0.011571
      dxy     :     0.007717
  6 C s       :     3.029298  s :     3.029298
      pz      :     0.883993  p :     2.588884
      px      :     0.875607
      py      :     0.829283
      dz2     :     0.022807  d :     0.152674
      dxz     :     0.028007
      dyz     :     0.021189
      dx2y2   :     0.039000
      dxy     :     0.041671
  7 C s       :     3.248466  s :     3.248466
      pz      :     0.925216  p :     2.838168
      px      :     0.982889
      py      :     0.930063
      dz2     :     0.008945  d :     0.088427
      dxz     :     0.020226
      dyz     :     0.010415
      dx2y2   :     0.029209
      dxy     :     0.019632
  8 C s       :     3.306882  s :     3.306882
      pz      :     0.890058  p :     2.780980
      px      :     0.941138
      py      :     0.949784
      dz2     :     0.015703  d :     0.090369
      dxz     :     0.010688
      dyz     :     0.018228
      dx2y2   :     0.028440
      dxy     :     0.017310
  9 C s       :     3.092504  s :     3.092504
      pz      :     0.925172  p :     2.837013
      px      :     1.069487
      py      :     0.842353
      dz2     :     0.030436  d :     0.171225
      dxz     :     0.032231
      dyz     :     0.019317
      dx2y2   :     0.050303
      dxy     :     0.038937
 10 C s       :     2.958592  s :     2.958592
      pz      :     0.867303  p :     2.479720
      px      :     0.835443
      py      :     0.776974
      dz2     :     0.018437  d :     0.152838
      dxz     :     0.031943
      dyz     :     0.023676
      dx2y2   :     0.045605
      dxy     :     0.033176
 11 N s       :     3.442776  s :     3.442776
      pz      :     1.408560  p :     3.744479
      px      :     1.087906
      py      :     1.248013
      dz2     :     0.009955  d :     0.068954
      dxz     :     0.009444
      dyz     :     0.014335
      dx2y2   :     0.018418
      dxy     :     0.016802
 12 C s       :     3.135674  s :     3.135674
      pz      :     0.968068  p :     2.728970
      px      :     0.859621
      py      :     0.901281
      dz2     :     0.008655  d :     0.103179
      dxz     :     0.029644
      dyz     :     0.010118
      dx2y2   :     0.028877
      dxy     :     0.025885
 13 C s       :     3.149387  s :     3.149387
      pz      :     0.958951  p :     2.830780
      px      :     0.924271
      py      :     0.947559
      dz2     :     0.017171  d :     0.084643
      dxz     :     0.017418
      dyz     :     0.010425
      dx2y2   :     0.016872
      dxy     :     0.022757
 14 C s       :     3.240028  s :     3.240028
      pz      :     1.010481  p :     2.968297
      px      :     0.988814
      py      :     0.969002
      dz2     :     0.012669  d :     0.077587
      dxz     :     0.012588
      dyz     :     0.013935
      dx2y2   :     0.018327
      dxy     :     0.020069
 15 C s       :     2.820986  s :     2.820986
      pz      :     0.721274  p :     2.214926
      px      :     0.684349
      py      :     0.809303
      dz2     :     0.079543  d :     0.298460
      dxz     :     0.076530
      dyz     :     0.077523
      dx2y2   :     0.036538
      dxy     :     0.028325
 16 O s       :     3.883414  s :     3.883414
      pz      :     1.444576  p :     4.658480
      px      :     1.640772
      py      :     1.573132
      dz2     :     0.011115  d :     0.034212
      dxz     :     0.009623
      dyz     :     0.009406
      dx2y2   :     0.001765
      dxy     :     0.002303
 17 N s       :     3.439320  s :     3.439320
      pz      :     1.102914  p :     3.666580
      px      :     1.179346
      py      :     1.384320
      dz2     :     0.022915  d :     0.092043
      dxz     :     0.025028
      dyz     :     0.018718
      dx2y2   :     0.013540
      dxy     :     0.011843
 18 C s       :     3.250303  s :     3.250303
      pz      :     1.108689  p :     2.937579
      px      :     0.834584
      py      :     0.994306
      dz2     :     0.008342  d :     0.062122
      dxz     :     0.011402
      dyz     :     0.005978
      dx2y2   :     0.023634
      dxy     :     0.012766
 19 C s       :     3.253926  s :     3.253926
      pz      :     0.815314  p :     2.950215
      px      :     1.034140
      py      :     1.100761
      dz2     :     0.014652  d :     0.064166
      dxz     :     0.015934
      dyz     :     0.018497
      dx2y2   :     0.005460
      dxy     :     0.009623
 20 H s       :     0.814092  s :     0.814092
      pz      :     0.003596  p :     0.024445
      px      :     0.011086
      py      :     0.009763
 21 H s       :     0.823242  s :     0.823242
      pz      :     0.009264  p :     0.023095
      px      :     0.008586
      py      :     0.005245
 22 H s       :     0.827826  s :     0.827826
      pz      :     0.003959  p :     0.023006
      px      :     0.005866
      py      :     0.013181
 23 H s       :     0.821899  s :     0.821899
      pz      :     0.014780  p :     0.024574
      px      :     0.005512
      py      :     0.004283
 24 H s       :     0.830385  s :     0.830385
      pz      :     0.005344  p :     0.022961
      px      :     0.003368
      py      :     0.014250
 25 H s       :     0.827505  s :     0.827505
      pz      :     0.008506  p :     0.022998
      px      :     0.008980
      py      :     0.005513
 26 H s       :     0.825812  s :     0.825812
      pz      :     0.008561  p :     0.026294
      px      :     0.004982
      py      :     0.012751
 27 H s       :     0.825713  s :     0.825713
      pz      :     0.005604  p :     0.027016
      px      :     0.017571
      py      :     0.003841
 28 H s       :     0.837959  s :     0.837959
      pz      :     0.005610  p :     0.026580
      px      :     0.009702
      py      :     0.011268
 29 H s       :     0.840618  s :     0.840618
      pz      :     0.009005  p :     0.026563
      px      :     0.004457
      py      :     0.013101
 30 H s       :     0.839049  s :     0.839049
      pz      :     0.005348  p :     0.026130
      px      :     0.016967
      py      :     0.003815
 31 H s       :     0.813999  s :     0.813999
      pz      :     0.009289  p :     0.026223
      px      :     0.004220
      py      :     0.012714
 32 H s       :     0.846327  s :     0.846327
      pz      :     0.005831  p :     0.026527
      px      :     0.009751
      py      :     0.010944
 33 H s       :     0.844276  s :     0.844276
      pz      :     0.006855  p :     0.027425
      px      :     0.016156
      py      :     0.004414
 34 H s       :     0.721141  s :     0.721141
      pz      :     0.012618  p :     0.050778
      px      :     0.029982
      py      :     0.008178


                     *******************************
                     * LOEWDIN POPULATION ANALYSIS *
                     *******************************

----------------------
LOEWDIN ATOMIC CHARGES
----------------------
   0 C :   -0.017279
   1 C :   -0.100044
   2 C :    0.011730
   3 C :   -0.075749
   4 C :   -0.028079
   5 O :    0.195015
   6 C :   -0.057148
   7 C :   -0.043184
   8 C :    0.003421
   9 C :   -0.044354
  10 C :   -0.097192
  11 N :    0.148651
  12 C :   -0.112628
  13 C :   -0.143649
  14 C :   -0.108668
  15 C :   -0.327228
  16 O :   -0.050896
  17 N :    0.098761
  18 C :   -0.200443
  19 C :   -0.206517
  20 H :    0.121504
  21 H :    0.121185
  22 H :    0.118070
  23 H :    0.122134
  24 H :    0.119273
  25 H :    0.119122
  26 H :    0.161075
  27 H :    0.162238
  28 H :    0.155077
  29 H :    0.158669
  30 H :    0.159441
  31 H :    0.147457
  32 H :    0.149283
  33 H :    0.144004
  34 H :    0.196949

-------------------------------
LOEWDIN REDUCED ORBITAL CHARGES
-------------------------------
  0 C s       :     2.781450  s :     2.781450
      pz      :     0.889044  p :     2.880516
      px      :     0.999017
      py      :     0.992455
      dz2     :     0.048269  d :     0.355313
      dxz     :     0.052169
      dyz     :     0.061700
      dx2y2   :     0.105775
      dxy     :     0.087400
  1 C s       :     2.774976  s :     2.774976
      pz      :     0.934575  p :     2.963295
      px      :     1.039309
      py      :     0.989410
      dz2     :     0.044755  d :     0.361774
      dxz     :     0.070184
      dyz     :     0.041888
      dx2y2   :     0.082431
      dxy     :     0.122515
  2 C s       :     2.781916  s :     2.781916
      pz      :     0.842407  p :     2.838140
      px      :     1.050354
      py      :     0.945379
      dz2     :     0.028751  d :     0.368213
      dxz     :     0.082052
      dyz     :     0.043386
      dx2y2   :     0.101432
      dxy     :     0.112593
  3 C s       :     2.726264  s :     2.726264
      pz      :     0.826238  p :     2.713459
      px      :     1.021117
      py      :     0.866104
      dz2     :     0.093492  d :     0.636026
      dxz     :     0.116834
      dyz     :     0.111064
      dx2y2   :     0.166748
      dxy     :     0.147888
  4 C s       :     2.700651  s :     2.700651
      pz      :     0.926496  p :     2.864752
      px      :     0.973700
      py      :     0.964557
      dz2     :     0.058254  d :     0.462676
      dxz     :     0.088509
      dyz     :     0.064144
      dx2y2   :     0.132239
      dxy     :     0.119530
  5 O s       :     3.280064  s :     3.280064
      pz      :     1.547509  p :     4.425604
      px      :     1.416786
      py      :     1.461309
      dz2     :     0.017480  d :     0.099318
      dxz     :     0.014537
      dyz     :     0.018025
      dx2y2   :     0.025803
      dxy     :     0.023472
  6 C s       :     2.708407  s :     2.708407
      pz      :     0.886425  p :     2.853232
      px      :     1.009998
      py      :     0.956810
      dz2     :     0.069032  d :     0.495509
      dxz     :     0.088557
      dyz     :     0.069039
      dx2y2   :     0.131065
      dxy     :     0.137815
  7 C s       :     2.770480  s :     2.770480
      pz      :     0.899801  p :     2.910665
      px      :     1.032129
      py      :     0.978735
      dz2     :     0.030018  d :     0.362039
      dxz     :     0.071195
      dyz     :     0.047130
      dx2y2   :     0.112684
      dxy     :     0.101013
  8 C s       :     2.778200  s :     2.778200
      pz      :     0.856827  p :     2.851963
      px      :     1.015326
      py      :     0.979810
      dz2     :     0.050343  d :     0.366416
      dxz     :     0.048016
      dyz     :     0.065320
      dx2y2   :     0.122186
      dxy     :     0.080552
  9 C s       :     2.702205  s :     2.702205
      pz      :     0.880503  p :     2.780349
      px      :     1.008350
      py      :     0.891496
      dz2     :     0.090089  d :     0.561800
      dxz     :     0.093799
      dyz     :     0.091625
      dx2y2   :     0.144255
      dxy     :     0.142032
 10 C s       :     2.707271  s :     2.707271
      pz      :     0.904429  p :     2.884597
      px      :     1.007399
      py      :     0.972770
      dz2     :     0.056255  d :     0.505323
      dxz     :     0.103707
      dyz     :     0.072690
      dx2y2   :     0.142042
      dxy     :     0.130629
 11 N s       :     2.931220  s :     2.931220
      pz      :     1.311770  p :     3.702058
      px      :     1.168420
      py      :     1.221868
      dz2     :     0.027522  d :     0.218071
      dxz     :     0.031509
      dyz     :     0.038396
      dx2y2   :     0.069387
      dxy     :     0.051257
 12 C s       :     2.784685  s :     2.784685
      pz      :     0.931768  p :     2.880677
      px      :     1.019490
      py      :     0.929418
      dz2     :     0.036914  d :     0.447267
      dxz     :     0.104545
      dyz     :     0.051908
      dx2y2   :     0.116473
      dxy     :     0.137427
 13 C s       :     2.778157  s :     2.778157
      pz      :     0.947883  p :     2.985862
      px      :     1.041581
      py      :     0.996399
      dz2     :     0.060372  d :     0.379631
      dxz     :     0.073821
      dyz     :     0.042780
      dx2y2   :     0.079462
      dxy     :     0.123196
 14 C s       :     2.775393  s :     2.775393
      pz      :     0.972187  p :     2.980723
      px      :     0.996344
      py      :     1.012192
      dz2     :     0.045275  d :     0.352552
      dxz     :     0.053476
      dyz     :     0.059845
      dx2y2   :     0.109118
      dxy     :     0.084838
 15 C s       :     2.723554  s :     2.723554
      pz      :     0.977684  p :     2.613052
      px      :     0.818899
      py      :     0.816469
      dz2     :     0.268075  d :     0.990622
      dxz     :     0.263400
      dyz     :     0.218642
      dx2y2   :     0.133065
      dxy     :     0.107440
 16 O s       :     3.430588  s :     3.430588
      pz      :     1.494424  p :     4.551602
      px      :     1.574754
      py      :     1.482423
      dz2     :     0.024896  d :     0.068706
      dxz     :     0.021745
      dyz     :     0.015021
      dx2y2   :     0.003435
      dxy     :     0.003610
 17 N s       :     2.921775  s :     2.921775
      pz      :     1.176619  p :     3.706199
      px      :     1.220565
      py      :     1.309015
      dz2     :     0.071375  d :     0.273265
      dxz     :     0.074875
      dyz     :     0.053942
      dx2y2   :     0.037818
      dxy     :     0.035255
 18 C s       :     2.836483  s :     2.836483
      pz      :     1.106567  p :     3.070990
      px      :     0.929403
      py      :     1.035021
      dz2     :     0.043563  d :     0.292969
      dxz     :     0.066302
      dyz     :     0.022910
      dx2y2   :     0.095253
      dxy     :     0.064941
 19 C s       :     2.837364  s :     2.837364
      pz      :     0.907337  p :     3.073418
      px      :     1.060573
      py      :     1.105508
      dz2     :     0.073935  d :     0.295735
      dxz     :     0.084332
      dyz     :     0.062544
      dx2y2   :     0.020732
      dxy     :     0.054191
 20 H s       :     0.814278  s :     0.814278
      pz      :     0.010204  p :     0.064218
      px      :     0.028105
      py      :     0.025909
 21 H s       :     0.817925  s :     0.817925
      pz      :     0.022377  p :     0.060890
      px      :     0.023564
      py      :     0.014949
 22 H s       :     0.820973  s :     0.820973
      pz      :     0.010911  p :     0.060958
      px      :     0.016023
      py      :     0.034023
 23 H s       :     0.813800  s :     0.813800
      pz      :     0.038180  p :     0.064067
      px      :     0.013799
      py      :     0.012088
 24 H s       :     0.819852  s :     0.819852
      pz      :     0.015416  p :     0.060875
      px      :     0.010124
      py      :     0.035335
 25 H s       :     0.820014  s :     0.820014
      pz      :     0.022985  p :     0.060864
      px      :     0.022132
      py      :     0.015747
 26 H s       :     0.776797  s :     0.776797
      pz      :     0.019735  p :     0.062128
      px      :     0.013879
      py      :     0.028515
 27 H s       :     0.774442  s :     0.774442
      pz      :     0.014189  p :     0.063320
      px      :     0.037922
      py      :     0.011209
 28 H s       :     0.782567  s :     0.782567
      pz      :     0.014309  p :     0.062356
      px      :     0.022756
      py      :     0.025291
 29 H s       :     0.779120  s :     0.779120
      pz      :     0.020592  p :     0.062211
      px      :     0.012818
      py      :     0.028802
 30 H s       :     0.779118  s :     0.779118
      pz      :     0.013473  p :     0.061441
      px      :     0.036707
      py      :     0.011261
 31 H s       :     0.788676  s :     0.788676
      pz      :     0.021882  p :     0.063868
      px      :     0.012737
      py      :     0.029248
 32 H s       :     0.789153  s :     0.789153
      pz      :     0.014627  p :     0.061564
      px      :     0.022503
      py      :     0.024434
 33 H s       :     0.791343  s :     0.791343
      pz      :     0.017227  p :     0.064652
      px      :     0.034634
      py      :     0.012791
 34 H s       :     0.684384  s :     0.684384
      pz      :     0.030854  p :     0.118667
      px      :     0.066386
      py      :     0.021427


                      *****************************
                      * MAYER POPULATION ANALYSIS *
                      *****************************

  NA   - Mulliken gross atomic population
  ZA   - Total nuclear charge
  QA   - Mulliken gross atomic charge
  VA   - Mayer's total valence
  BVA  - Mayer's bonded valence
  FA   - Mayer's free valence

  ATOM       NA         ZA         QA         VA         BVA        FA
  0 C      6.0647     6.0000    -0.0647     3.8686     3.6894     0.1791
  1 C      6.0938     6.0000    -0.0938     3.8501     3.7962     0.0539
  2 C      6.1095     6.0000    -0.1095     3.7675     3.5377     0.2298
  3 C      5.7645     6.0000     0.2355     3.7208     3.5975     0.1233
  4 C      5.7157     6.0000     0.2843     3.5170     3.4724     0.0446
  5 O      8.4898     8.0000    -0.4898     2.0552     2.0011     0.0541
  6 C      5.7709     6.0000     0.2291     3.9050     3.8316     0.0734
  7 C      6.1751     6.0000    -0.1751     3.7368     3.6221     0.1147
  8 C      6.1782     6.0000    -0.1782     3.7647     3.6175     0.1473
  9 C      6.1007     6.0000    -0.1007     3.8346     3.7392     0.0955
 10 C      5.5911     6.0000     0.4089     3.8062     3.7882     0.0180
 11 N      7.2562     7.0000    -0.2562     3.3748     3.1973     0.1775
 12 C      5.9678     6.0000     0.0322     3.9397     3.7502     0.1895
 13 C      6.0648     6.0000    -0.0648     3.8812     3.8242     0.0570
 14 C      6.2859     6.0000    -0.2859     3.9194     3.6305     0.2890
 15 C      5.3344     6.0000     0.6656     4.2202     4.2165     0.0037
 16 O      8.5761     8.0000    -0.5761     2.0349     2.0281     0.0069
 17 N      7.1979     7.0000    -0.1979     3.2855     3.2824     0.0032
 18 C      6.2500     6.0000    -0.2500     3.8200     3.8197     0.0002
 19 C      6.2683     6.0000    -0.2683     3.8315     3.8306     0.0010
 20 H      0.8385     1.0000     0.1615     0.9653     0.9649     0.0004
 21 H      0.8463     1.0000     0.1537     0.9475     0.9471     0.0004
 22 H      0.8508     1.0000     0.1492     0.9495     0.9494     0.0001
 23 H      0.8465     1.0000     0.1535     0.9781     0.9781     0.0000
 24 H      0.8533     1.0000     0.1467     0.9499     0.9496     0.0003
 25 H      0.8505     1.0000     0.1495     0.9509     0.9505     0.0004
 26 H      0.8521     1.0000     0.1479     0.9653     0.9645     0.0007
 27 H      0.8527     1.0000     0.1473     0.9702     0.9690     0.0012
 28 H      0.8645     1.0000     0.1355     0.9646     0.9641     0.0005
 29 H      0.8672     1.0000     0.1328     0.9708     0.9702     0.0006
 30 H      0.8652     1.0000     0.1348     0.9695     0.9687     0.0008
 31 H      0.8402     1.0000     0.1598     0.9657     0.9640     0.0017
 32 H      0.8729     1.0000     0.1271     0.9667     0.9667     0.0001
 33 H      0.8717     1.0000     0.1283     0.9724     0.9701     0.0023
 34 H      0.7719     1.0000     0.2281     0.9511     0.9495     0.0015

  Mayer bond orders larger than 0.100000
B(  0-C ,  1-C ) :   1.3010 B(  0-C ,  3-C ) :   1.2628 B(  0-C , 27-H ) :   0.9700 
B(  1-C ,  2-C ) :   1.3588 B(  1-C , 28-H ) :   0.9885 B(  2-C ,  6-C ) :   1.1400 
B(  2-C , 26-H ) :   0.9810 B(  3-C ,  4-C ) :   1.1669 B(  3-C ,  5-O ) :   0.9634 
B(  4-C ,  6-C ) :   1.2781 B(  4-C ,  9-C ) :   1.0492 B(  5-O , 15-C ) :   0.9035 
B(  6-C ,  7-C ) :   1.2748 B(  7-C ,  8-C ) :   1.2788 B(  7-C , 29-H ) :   1.0016 
B(  8-C , 10-C ) :   1.1711 B(  8-C , 30-H ) :   1.0064 B(  9-C , 10-C ) :   1.3637 
B(  9-C , 11-N ) :   1.1742 B( 10-C , 14-C ) :   1.2064 B( 11-N , 12-C ) :   1.1433 
B( 11-N , 34-H ) :   0.8837 B( 12-C , 13-C ) :   1.5330 B( 12-C , 31-H ) :   0.9470 
B( 13-C , 14-C ) :   1.2769 B( 13-C , 32-H ) :   0.9689 B( 14-C , 33-H ) :   0.9696 
B( 15-C , 16-O ) :   1.8582 B( 15-C , 17-N ) :   1.3954 B( 17-N , 18-C ) :   0.9264 
B( 17-N , 19-C ) :   0.9319 B( 18-C , 23-H ) :   0.9612 B( 18-C , 24-H ) :   0.9571 
B( 18-C , 25-H ) :   0.9603 B( 19-C , 20-H ) :   0.9576 B( 19-C , 21-H ) :   0.9548 
B( 19-C , 22-H ) :   0.9609 


-------
TIMINGS
-------

Total TD-DFT gradient time  ....      476.438 sec

Fock matrix formation       ....     124.673 sec  ( 26.2%)
  Coulomb formation         ....     113.643 sec  ( 91.2% of F)
  XC integration            ....      11.030 sec  (  8.8% of F)
Z-vector equation           ....     151.710 sec  ( 31.8%)
Densities                   ....       0.000 sec  (  0.0%)
One electron gradient       ....       2.048 sec  (  0.4%)
RI-J Coulomb gradient       ....      11.635 sec  (  2.4%)
COSX gradient               ....      26.347 sec  (  5.5%)
XC gradient                 ....     112.422 sec  ( 23.6%)
CPCM gradient               ....       9.627 sec  (  2.0%)
   A-Matrix (El+Nuc)        ....       0.244 sec  (  0.1%)
   Potential                ....       9.383 sec  (  2.0%)

Maximum memory used throughout the entire CIS-calculation: 268.3 MB
=> NOW LEAVING ORCA_CIS


-------------------------------------------------------------------------------
                          DFT DISPERSION CORRECTION                            
                                                                               
                              DFTD3 V3.1  Rev 1                                
                          USING Becke-Johnson damping                          
-------------------------------------------------------------------------------
The B3LYP functional is recognized
Active option DFTDOPT                   ...         4   

molecular C6(AA) [au] = 14259.691018 


            DFT-D V3
 parameters
 s6 scaling factor         :     1.0000 
 a1 scaling factor         :     0.3981 
 s8 scaling factor         :     1.9889 
 a2 scaling factor         :     4.4211 
 ad hoc parameters k1-k3   :    16.0000     1.3333    -4.0000 

 Edisp/kcal,au: -48.381409008850  -0.077100674727 
 E6   /kcal   : -22.747367623 
 E8   /kcal   : -25.634041386 
 % E8         :  52.983246894 

-------------------------   ----------------
Dispersion correction           -0.077100675
-------------------------   ----------------


-------------------------   --------------------
FINAL SINGLE POINT ENERGY      -878.340715520988
-------------------------   --------------------

------------------------------------------------------------------------------
                         ORCA GEOMETRY RELAXATION STEP
------------------------------------------------------------------------------

Reading the OPT-File                    .... done
Getting information on internals        .... done
Copying old internal coords+grads       .... done
Making the new internal coordinates     .... (2022 redundants) done
Validating the new internal coordinates .... (2022 redundants) done
Calculating the B-matrix                .... done
Calculating the G,G- and P matrices     .... done
Transforming gradient to internals      .... done
Projecting the internal gradient        .... done
Number of atoms                         ....  35
Number of internal coordinates          .... 181
Current Energy                          ....  -878.340715521 Eh
Current gradient norm                   ....     0.003247963 Eh/bohr
Maximum allowed component of the step   ....  0.300
Current trust radius                    ....  0.300
Evaluating the initial hessian          ....  (Almloef) done
Projecting the Hessian                  .... done
Forming the augmented Hessian           .... done
Diagonalizing the augmented Hessian     .... done
Last element of RFO vector              ....  0.998010905
Lowest eigenvalues of augmented Hessian:
 -0.000275898  0.015609642  0.015713032  0.019364003  0.019985193
Length of the computed step             ....  0.063167174
The final length of the internal step   ....  0.063167174
Converting the step to Cartesian space:
 Initial RMS(Int)=    0.0046951791
Transforming coordinates:
 Iter   0:  RMS(Cart)=    0.0374776677 RMS(Int)=    0.0046758473
done
Storing new coordinates                 .... done

                                .--------------------.
          ----------------------|Geometry convergence|-------------------------
          Item                value                   Tolerance       Converged
          ---------------------------------------------------------------------
          RMS gradient        0.0006974502            0.0001000000      NO
          MAX gradient        0.0033931643            0.0003000000      NO
          RMS step            0.0046951791            0.0020000000      NO
          MAX step            0.0470385307            0.0040000000      NO
          ........................................................
          Max(Bonds)      0.0249      Max(Angles)    0.35
          Max(Dihed)        1.28      Max(Improp)    0.00
          ---------------------------------------------------------------------

The optimization has not yet converged - more geometry cycles are needed


    ---------------------------------------------------------------------------
                         Redundant Internal Coordinates
                            (Angstroem and degrees)

        Definition                    Value    dE/dq     Step     New-Value
    ----------------------------------------------------------------------------
     1. B(C   1,C   0)                1.3888  0.000888 -0.0004    1.3884   
     2. B(C   2,C   1)                1.3776  0.000632 -0.0001    1.3774   
     3. B(C   3,C   0)                1.4104  0.001688 -0.0016    1.4088   
     4. B(C   4,C   3)                1.4222  0.002534 -0.0036    1.4186   
     5. B(O   5,C   3)                1.3540  0.003393 -0.0026    1.3514   
     6. B(C   6,C   4)                1.4304  0.001518 -0.0022    1.4282   
     7. B(C   6,C   2)                1.4320  0.001348 -0.0012    1.4308   
     8. B(C   7,C   6)                1.4001  0.001461 -0.0011    1.3990   
     9. B(C   8,C   7)                1.3811  0.000888 -0.0003    1.3809   
    10. B(C   9,C   4)                1.4316  0.001980 -0.0036    1.4280   
    11. B(C  10,C   9)                1.4070  0.001041 -0.0015    1.4055   
    12. B(C  10,C   8)                1.4173  0.001405 -0.0010    1.4163   
    13. B(N  11,C   9)                1.3891  0.000735 -0.0014    1.3876   
    14. B(C  12,N  11)                1.3750  0.001178 -0.0011    1.3740   
    15. B(C  13,C  12)                1.3668  0.000599 -0.0002    1.3667   
    16. B(C  14,C  13)                1.4009  0.000818 -0.0004    1.4006   
    17. B(C  14,C  10)                1.4222  0.001434 -0.0014    1.4209   
    18. B(C  15,O   5)                1.4235  0.002598 -0.0028    1.4207   
    19. B(O  16,C  15)                1.2119  0.000226 -0.0001    1.2118   
    20. B(N  17,C  15)                1.3318  0.002586 -0.0020    1.3298   
    21. B(C  18,N  17)                1.4622  0.001202 -0.0015    1.4607   
    22. B(C  19,N  17)                1.4631  0.001499 -0.0019    1.4612   
    23. B(H  20,C  19)                1.0833 -0.000133  0.0002    1.0835   
    24. B(H  21,C  19)                1.0903  0.000067 -0.0001    1.0902   
    25. B(H  22,C  19)                1.0917  0.000056 -0.0001    1.0916   
    26. B(H  23,C  18)                1.0843  0.000001 -0.0000    1.0843   
    27. B(H  24,C  18)                1.0913  0.000031 -0.0000    1.0913   
    28. B(H  25,C  18)                1.0909  0.000036 -0.0001    1.0908   
    29. B(H  26,C   2)                1.0819  0.000227 -0.0003    1.0816   
    30. B(H  27,C   0)                1.0796  0.000139 -0.0002    1.0794   
    31. B(H  28,C   1)                1.0804  0.000163 -0.0002    1.0802   
    32. B(H  29,C   7)                1.0816  0.000224 -0.0003    1.0813   
    33. B(H  30,C   8)                1.0826  0.000234 -0.0003    1.0823   
    34. B(H  31,C  12)                1.0789  0.000162 -0.0002    1.0787   
    35. B(H  32,C  13)                1.0806  0.000118 -0.0002    1.0804   
    36. B(H  33,C  14)                1.0797  0.000168 -0.0002    1.0795   
    37. B(H  34,O   5)                1.9729  0.001704 -0.0249    1.9480   
    38. B(H  34,N  11)                1.0056  0.000834 -0.0002    1.0054   
    39. A(C   1,C   0,H  27)          120.17 -0.000434    0.09    120.25   
    40. A(C   1,C   0,C   3)          121.28  0.000486   -0.11    121.17   
    41. A(C   3,C   0,H  27)          118.53 -0.000053    0.03    118.56   
    42. A(C   0,C   1,H  28)          120.21 -0.000112   -0.00    120.21   
    43. A(C   0,C   1,C   2)          118.70  0.000219    0.01    118.70   
    44. A(C   2,C   1,H  28)          121.09 -0.000107   -0.00    121.09   
    45. A(C   1,C   2,C   6)          121.39  0.000089   -0.02    121.36   
    46. A(C   1,C   2,H  26)          120.78 -0.000096    0.02    120.80   
    47. A(C   6,C   2,H  26)          117.83  0.000007    0.00    117.83   
    48. A(C   4,C   3,O   5)          118.69  0.000624   -0.24    118.45   
    49. A(C   0,C   3,C   4)          122.04 -0.000938    0.09    122.14   
    50. A(C   0,C   3,O   5)          119.14  0.000305    0.17    119.31   
    51. A(C   3,C   4,C   9)          126.03  0.000260   -0.24    125.79   
    52. A(C   6,C   4,C   9)          118.37 -0.000490    0.15    118.52   
    53. A(C   3,C   4,C   6)          115.60  0.000230    0.10    115.69   
    54. A(C   3,O   5,C  15)          120.39  0.001352   -0.19    120.20   
    55. A(C   2,C   6,C   7)          118.78  0.000235    0.10    118.88   
    56. A(C   4,C   6,C   7)          120.23 -0.000147   -0.04    120.19   
    57. A(C   2,C   6,C   4)          120.99 -0.000088   -0.06    120.93   
    58. A(C   8,C   7,H  29)          120.29 -0.000391    0.06    120.35   
    59. A(C   6,C   7,H  29)          119.40  0.000024   -0.00    119.40   
    60. A(C   6,C   7,C   8)          120.31  0.000367   -0.06    120.25   
    61. A(C   7,C   8,H  30)          119.85 -0.000203    0.03    119.88   
    62. A(C  10,C   8,H  30)          118.42  0.000130   -0.02    118.40   
    63. A(C   7,C   8,C  10)          121.73  0.000073   -0.01    121.72   
    64. A(C  10,C   9,N  11)          116.93 -0.000033    0.14    117.07   
    65. A(C   4,C   9,C  10)          120.84  0.000556   -0.03    120.81   
    66. A(C   4,C   9,N  11)          122.24 -0.000523   -0.11    122.13   
    67. A(C   8,C  10,C  14)          120.61  0.000610    0.04    120.65   
    68. A(C   9,C  10,C  14)          120.86 -0.000250   -0.03    120.83   
    69. A(C   8,C  10,C   9)          118.52 -0.000360   -0.00    118.52   
    70. A(C   9,N  11,H  34)          118.82 -0.001029    0.06    118.88   
    71. A(C   9,N  11,C  12)          122.65  0.000206   -0.08    122.56   
    72. A(C  12,N  11,H  34)          118.54  0.000823    0.02    118.56   
    73. A(N  11,C  12,H  31)          115.41  0.000179   -0.02    115.39   
    74. A(C  13,C  12,H  31)          123.79 -0.000084    0.03    123.81   
    75. A(N  11,C  12,C  13)          120.80 -0.000094   -0.01    120.79   
    76. A(C  12,C  13,H  32)          119.06 -0.000022   -0.01    119.05   
    77. A(C  12,C  13,C  14)          119.71  0.000025    0.03    119.74   
    78. A(C  14,C  13,H  32)          121.22 -0.000004   -0.02    121.21   
    79. A(C  10,C  14,H  33)          119.36  0.000050    0.00    119.36   
    80. A(C  10,C  14,C  13)          119.05  0.000146   -0.04    119.01   
    81. A(C  13,C  14,H  33)          121.58 -0.000197    0.04    121.62   
    82. A(O  16,C  15,N  17)          128.72 -0.001601    0.20    128.92   
    83. A(O   5,C  15,N  17)          110.95  0.002682   -0.35    110.60   
    84. A(O   5,C  15,O  16)          120.28 -0.001082    0.15    120.43   
    85. A(C  18,N  17,C  19)          115.60 -0.001047    0.15    115.76   
    86. A(C  15,N  17,C  19)          125.46  0.001980   -0.28    125.17   
    87. A(C  15,N  17,C  18)          118.88 -0.000931    0.12    119.01   
    88. A(H  24,C  18,H  25)          108.90 -0.000225    0.04    108.94   
    89. A(H  23,C  18,H  25)          109.66 -0.000186    0.04    109.69   
    90. A(N  17,C  18,H  25)          109.40  0.000166   -0.03    109.37   
    91. A(H  23,C  18,H  24)          109.66 -0.000209    0.03    109.70   
    92. A(N  17,C  18,H  24)          109.39  0.000224   -0.04    109.35   
    93. A(N  17,C  18,H  23)          109.81  0.000228   -0.04    109.77   
    94. A(H  21,C  19,H  22)          108.78 -0.000318    0.07    108.86   
    95. A(H  20,C  19,H  22)          109.62 -0.000229    0.02    109.64   
    96. A(N  17,C  19,H  22)          109.95  0.000253   -0.05    109.90   
    97. A(H  20,C  19,H  21)          108.99 -0.000379    0.08    109.07   
    98. A(N  17,C  19,H  21)          108.43  0.000084   -0.01    108.43   
    99. A(N  17,C  19,H  20)          111.01  0.000570   -0.11    110.91   
   100. D(H  28,C   1,C   0,H  27)      1.35  0.000038   -0.10      1.25   
   101. D(C   2,C   1,C   0,C   3)      0.59  0.000018   -0.04      0.56   
   102. D(H  28,C   1,C   0,C   3)    179.75  0.000008    0.00    179.76   
   103. D(C   2,C   1,C   0,H  27)   -177.81  0.000048   -0.14   -177.95   
   104. D(C   6,C   2,C   1,C   0)      0.20  0.000025   -0.03      0.17   
   105. D(C   6,C   2,C   1,H  28)   -178.95  0.000035   -0.07   -179.03   
   106. D(H  26,C   2,C   1,H  28)      0.45 -0.000010    0.02      0.47   
   107. D(H  26,C   2,C   1,C   0)    179.60 -0.000020    0.06    179.66   
   108. D(O   5,C   3,C   0,H  27)      1.36  0.000043   -0.16      1.21   
   109. D(O   5,C   3,C   0,C   1)   -177.07  0.000079   -0.26   -177.33   
   110. D(C   4,C   3,C   0,H  27)    177.18 -0.000073    0.16    177.34   
   111. D(C   4,C   3,C   0,C   1)     -1.26 -0.000036    0.06     -1.19   
   112. D(C   6,C   4,C   3,O   5)    176.87 -0.000100    0.31    177.18   
   113. D(C   6,C   4,C   3,C   0)      1.04  0.000027   -0.02      1.02   
   114. D(C   9,C   4,C   3,O   5)     -3.52 -0.000083    0.27     -3.25   
   115. D(C   9,C   4,C   3,C   0)   -179.35  0.000044   -0.06   -179.41   
   116. D(C  15,O   5,C   3,C   4)    144.85 -0.000075    0.12    144.97   
   117. D(C  15,O   5,C   3,C   0)    -39.19 -0.000252    0.44    -38.75   
   118. D(C   7,C   6,C   4,C   9)     -0.31 -0.000001   -0.05     -0.36   
   119. D(C   7,C   6,C   4,C   3)    179.33  0.000017   -0.09    179.24   
   120. D(C   2,C   6,C   4,C   9)   -179.89 -0.000023   -0.00   -179.89   
   121. D(C   2,C   6,C   4,C   3)     -0.25 -0.000004   -0.04     -0.29   
   122. D(C   7,C   6,C   2,H  26)      0.63 -0.000004    0.03      0.66   
   123. D(C   7,C   6,C   2,C   1)   -179.95 -0.000048    0.12   -179.83   
   124. D(C   4,C   6,C   2,H  26)   -179.78  0.000016   -0.02   -179.80   
   125. D(C   4,C   6,C   2,C   1)     -0.36 -0.000028    0.07     -0.29   
   126. D(H  29,C   7,C   6,C   4)   -179.56  0.000019   -0.03   -179.58   
   127. D(H  29,C   7,C   6,C   2)      0.03  0.000038   -0.08     -0.05   
   128. D(C   8,C   7,C   6,C   4)      0.56  0.000033   -0.06      0.49   
   129. D(C   8,C   7,C   6,C   2)   -179.86  0.000053   -0.11   -179.97   
   130. D(C  10,C   8,C   7,C   6)     -0.49 -0.000030    0.09     -0.40   
   131. D(H  30,C   8,C   7,H  29)     -0.38 -0.000009    0.01     -0.36   
   132. D(H  30,C   8,C   7,C   6)    179.51 -0.000023    0.05    179.56   
   133. D(C  10,C   8,C   7,H  29)    179.62 -0.000016    0.05    179.68   
   134. D(N  11,C   9,C   4,C   6)    179.76 -0.000040    0.18    179.94   
   135. D(N  11,C   9,C   4,C   3)      0.16 -0.000060    0.22      0.38   
   136. D(C  10,C   9,C   4,C   6)      0.00 -0.000031    0.14      0.14   
   137. D(C  10,C   9,C   4,C   3)   -179.60 -0.000051    0.18   -179.42   
   138. D(C  14,C  10,C   9,N  11)      0.20  0.000037   -0.12      0.08   
   139. D(C  14,C  10,C   9,C   4)    179.97  0.000028   -0.08    179.89   
   140. D(C   8,C  10,C   9,N  11)   -179.70  0.000045   -0.15   -179.86   
   141. D(C   8,C  10,C   9,C   4)      0.07  0.000036   -0.12     -0.05   
   142. D(C  14,C  10,C   8,H  30)      0.27 -0.000005    0.01      0.27   
   143. D(C  14,C  10,C   8,C   7)   -179.73  0.000002   -0.03   -179.76   
   144. D(C   9,C  10,C   8,H  30)   -179.83 -0.000013    0.04   -179.79   
   145. D(C   9,C  10,C   8,C   7)      0.18 -0.000006    0.00      0.18   
   146. D(H  34,N  11,C   9,C  10)   -179.96 -0.000061    0.17   -179.78   
   147. D(H  34,N  11,C   9,C   4)      0.28 -0.000055    0.14      0.41   
   148. D(C  12,N  11,C   9,C  10)     -0.18 -0.000019    0.07     -0.11   
   149. D(C  12,N  11,C   9,C   4)   -179.94 -0.000013    0.03   -179.91   
   150. D(H  31,C  12,N  11,H  34)     -0.41  0.000013   -0.06     -0.46   
   151. D(H  31,C  12,N  11,C   9)    179.81 -0.000025    0.05    179.86   
   152. D(C  13,C  12,N  11,H  34)    179.77  0.000022   -0.08    179.69   
   153. D(C  13,C  12,N  11,C   9)     -0.01 -0.000015    0.03      0.01   
   154. D(H  32,C  13,C  12,H  31)      0.10  0.000018   -0.04      0.06   
   155. D(H  32,C  13,C  12,N  11)    179.91  0.000009   -0.02    179.90   
   156. D(C  14,C  13,C  12,H  31)   -179.63  0.000041   -0.10   -179.73   
   157. D(C  14,C  13,C  12,N  11)      0.18  0.000031   -0.08      0.10   
   158. D(C  10,C  14,C  13,C  12)     -0.15 -0.000013    0.03     -0.12   
   159. D(H  33,C  14,C  10,C   9)   -179.67 -0.000017    0.05   -179.63   
   160. D(H  33,C  14,C  10,C   8)      0.23 -0.000025    0.08      0.31   
   161. D(C  13,C  14,C  10,C   9)     -0.05 -0.000023    0.07      0.03   
   162. D(C  13,C  14,C  10,C   8)    179.86 -0.000031    0.11    179.96   
   163. D(H  33,C  14,C  13,H  32)     -0.26  0.000006   -0.01     -0.27   
   164. D(H  33,C  14,C  13,C  12)    179.47 -0.000018    0.05    179.52   
   165. D(C  10,C  14,C  13,H  32)   -179.87  0.000011   -0.04   -179.91   
   166. D(N  17,C  15,O   5,C   3)    154.27 -0.000398    1.22    155.49   
   167. D(O  16,C  15,O   5,C   3)    -28.16 -0.000456    1.28    -26.88   
   168. D(C  19,N  17,C  15,O  16)    178.25 -0.000128    0.25    178.50   
   169. D(C  19,N  17,C  15,O   5)     -4.44 -0.000161    0.32     -4.13   
   170. D(C  18,N  17,C  15,O  16)     -4.54 -0.000098    0.06     -4.48   
   171. D(C  18,N  17,C  15,O   5)    172.77 -0.000131    0.12    172.89   
   172. D(H  25,C  18,N  17,C  15)    121.15 -0.000002   -0.00    121.15   
   173. D(H  24,C  18,N  17,C  19)     57.84  0.000070   -0.18     57.66   
   174. D(H  24,C  18,N  17,C  15)   -119.64 -0.000042    0.01   -119.63   
   175. D(H  23,C  18,N  17,C  19)    178.24  0.000095   -0.19    178.04   
   176. D(H  23,C  18,N  17,C  15)      0.76 -0.000017   -0.00      0.75   
   177. D(H  22,C  19,N  17,C  15)    108.17  0.000173   -0.07    108.10   
   178. D(H  21,C  19,N  17,C  18)     49.70 -0.000045    0.18     49.88   
   179. D(H  21,C  19,N  17,C  15)   -133.01 -0.000016   -0.01   -133.02   
   180. D(H  20,C  19,N  17,C  18)    169.40 -0.000115    0.21    169.61   
   181. D(H  20,C  19,N  17,C  15)    -13.31 -0.000085    0.02    -13.29   
    ----------------------------------------------------------------------------

Geometry step timings:
Preparation and reading OPT file:      0.001 s ( 3.054 %)
Internal coordinates            :      0.000 s ( 0.151 %)
B/P matrices and projection     :      0.002 s (13.463 %)
Hessian update/contruction      :      0.008 s (49.371 %)
Making the step                 :      0.002 s (10.584 %)
Converting the step to Cartesian:      0.000 s ( 1.126 %)
Storing new data                :      0.002 s ( 9.108 %)
Checking convergence            :      0.000 s ( 0.060 %)
Final printing                  :      0.002 s (13.065 %)
Total time                      :      0.017 s

Time for energy+gradient        :    974.940 s
Time for complete geometry iter :    975.069 s

         *************************************************************
         *                GEOMETRY OPTIMIZATION CYCLE   2            *
         *************************************************************
---------------------------------
CARTESIAN COORDINATES (ANGSTROEM)
---------------------------------
  C     -3.078079   -0.646991   -0.044810
  C     -2.664586   -1.728767   -0.810650
  C     -1.339595   -1.811254   -1.178018
  C     -2.172237    0.359057    0.345104
  C     -0.796665    0.310329    0.001663
  O     -2.603046    1.366789    1.135830
  C     -0.393973   -0.812523   -0.783783
  C      0.938426   -0.946030   -1.188967
  C      1.874736    0.000974   -0.823905
  C      0.189340    1.277560    0.364247
  C      1.526036    1.130879   -0.044478
  N     -0.119414    2.396939    1.123947
  C      0.821617    3.333983    1.476365
  C      2.124144    3.198872    1.085272
  C      2.506993    2.094192    0.314116
  C     -3.894627    1.925723    0.941370
  O     -4.420377    1.891125   -0.149868
  N     -4.336890    2.483773    2.064503
  C     -5.579255    3.251282    2.032627
  C     -3.644525    2.449524    3.350799
  H     -2.842406    1.721182    3.338860
  H     -4.364021    2.174362    4.122201
  H     -3.240205    3.436900    3.581545
  H     -5.991392    3.240569    1.029746
  H     -5.376775    4.279782    2.336143
  H     -6.294483    2.811014    2.728678
  H     -0.979561   -2.641975   -1.769690
  H     -4.103345   -0.574288    0.284936
  H     -3.371591   -2.493357   -1.097607
  H      1.227972   -1.797651   -1.789022
  H      2.905320   -0.111903   -1.134621
  H      0.454529    4.158966    2.066396
  H      2.840413    3.953349    1.376804
  H      3.525595    1.961242   -0.017715
  H     -1.067002    2.527152    1.433791

----------------------------
CARTESIAN COORDINATES (A.U.)
----------------------------
  NO LB      ZA    FRAG     MASS         X           Y           Z
   0 C     6.0000    0    12.011   -5.816727   -1.222636   -0.084679
   1 C     6.0000    0    12.011   -5.035337   -3.266897   -1.531906
   2 C     6.0000    0    12.011   -2.531468   -3.422774   -2.226132
   3 C     6.0000    0    12.011   -4.104933    0.678520    0.652152
   4 C     6.0000    0    12.011   -1.505479    0.586437    0.003143
   5 O     8.0000    0    15.999   -4.919044    2.582857    2.146408
   6 C     6.0000    0    12.011   -0.744501   -1.535446   -1.481136
   7 C     6.0000    0    12.011    1.773368   -1.787738   -2.246821
   8 C     6.0000    0    12.011    3.542738    0.001841   -1.556955
   9 C     6.0000    0    12.011    0.357800    2.414239    0.688328
  10 C     6.0000    0    12.011    2.883791    2.137051   -0.084050
  11 N     7.0000    0    14.007   -0.225659    4.529559    2.123951
  12 C     6.0000    0    12.011    1.552631    6.300315    2.789926
  13 C     6.0000    0    12.011    4.014050    6.044993    2.050866
  14 C     6.0000    0    12.011    4.737530    3.957448    0.593593
  15 C     6.0000    0    12.011   -7.359778    3.639089    1.778932
  16 O     8.0000    0    15.999   -8.353303    3.573709   -0.283210
  17 N     7.0000    0    14.007   -8.195535    4.693650    3.901346
  18 C     6.0000    0    12.011  -10.543265    6.144033    3.841108
  19 C     6.0000    0    12.011   -6.887153    4.628930    6.332092
  20 H     1.0000    0     1.008   -5.371369    3.252562    6.309532
  21 H     1.0000    0     1.008   -8.246804    4.108948    7.789831
  22 H     1.0000    0     1.008   -6.123101    6.494801    6.768139
  23 H     1.0000    0     1.008  -11.322089    6.123789    1.945938
  24 H     1.0000    0     1.008  -10.160633    8.087616    4.414671
  25 H     1.0000    0     1.008  -11.894848    5.312046    5.156453
  26 H     1.0000    0     1.008   -1.851102   -4.992610   -3.344230
  27 H     1.0000    0     1.008   -7.754199   -1.085246    0.538451
  28 H     1.0000    0     1.008   -6.371383   -4.711762   -2.074176
  29 H     1.0000    0     1.008    2.320532   -3.397068   -3.380762
  30 H     1.0000    0     1.008    5.490259   -0.211466   -2.144123
  31 H     1.0000    0     1.008    0.858935    7.859307    3.904922
  32 H     1.0000    0     1.008    5.367602    7.470747    2.601783
  33 H     1.0000    0     1.008    6.662410    3.706210   -0.033477
  34 H     1.0000    0     1.008   -2.016342    4.775625    2.709473

--------------------------------
INTERNAL COORDINATES (ANGSTROEM)
--------------------------------
 C      0   0   0     0.000000000000     0.00000000     0.00000000
 C      1   0   0     1.388425839247     0.00000000     0.00000000
 C      2   1   0     1.377448249797   118.70111907     0.00000000
 C      1   2   3     1.408800044471   121.16926274     0.55806415
 C      4   1   2     1.418634101344   122.13648037   358.80669397
 O      4   1   2     1.351431561894   119.30564252   182.67373019
 C      5   4   1     1.428245393711   115.69182627     1.01505256
 C      7   5   4     1.399029679542   120.18647534   179.24025669
 C      8   7   5     1.380856516850   120.24897471     0.49471047
 C      5   4   1     1.428008885899   125.78753867   180.58577584
 C     10   5   4     1.405464159825   120.80797057   180.58340046
 N     10   5   4     1.387617014120   122.12522448     0.37997543
 C     12  10   5     1.373968127245   122.56091519   180.09013543
 C     13  12  10     1.366669389012   120.79255861     0.00000000
 C     14  13  12     1.400562099399   119.73995762     0.10349131
 C      6   4   1     1.420705350599   120.20428421   321.24776987
 O     16   6   4     1.211780270533   120.42835398   333.11814765
 N     16   6   4     1.329828887486   110.59984024   155.49140257
 C     18  16   6     1.460670437364   119.00826184   172.88689268
 C     18  16   6     1.461198036543   125.17366910   355.87322289
 H     20  18  16     1.083521581060   110.90564314   346.70735208
 H     20  18  16     1.090160612293   108.42693408   226.97798202
 H     20  18  16     1.091618101377   109.89995320   108.10388552
 H     19  18  16     1.084315714260   109.77184093     0.75428306
 H     19  18  16     1.091298211340   109.34972940   240.36558985
 H     19  18  16     1.090813209363   109.37088981   121.14901696
 H      3   2   1     1.081572165574   120.80363534   179.66115751
 H      1   2   3     1.079439176001   120.25469899   182.05100052
 H      2   1   3     1.080184229975   120.20570676   179.19947984
 H      8   7   5     1.081277868236   119.40051043   180.41605105
 H      9   8   7     1.082306652239   119.88345932   179.55925997
 H     13  12  10     1.078650409646   115.39345153   179.85987363
 H     14  13  12     1.080401550053   119.05142040   179.89749002
 H     15  14  13     1.079508740265   121.62258174   179.52284054
 H     12  10   5     1.005427059240   118.87499752     0.41492365

---------------------------
INTERNAL COORDINATES (A.U.)
---------------------------
 C      0   0   0     0.000000000000     0.00000000     0.00000000
 C      1   0   0     2.623744593436     0.00000000     0.00000000
 C      2   1   0     2.602999955765   118.70111907     0.00000000
 C      1   2   3     2.662246261507   121.16926274     0.55806415
 C      4   1   2     2.680829935782   122.13648037   358.80669397
 O      4   1   2     2.553835540718   119.30564252   182.67373019
 C      5   4   1     2.698992646148   115.69182627     1.01505256
 C      7   5   4     2.643782947561   120.18647534   179.24025669
 C      8   7   5     2.609440647087   120.24897471     0.49471047
 C      5   4   1     2.698545711156   125.78753867   180.58577584
 C     10   5   4     2.655942353112   120.80797057   180.58340046
 N     10   5   4     2.622216135456   122.12522448     0.37997543
 C     12  10   5     2.596423477230   122.56091519   180.09013543
 C     13  12  10     2.582630860847   120.79255861     0.00000000
 C     14  13  12     2.646678801414   119.73995762     0.10349131
 C      6   4   1     2.684744029629   120.20428421   321.24776987
 O     16   6   4     2.289932845796   120.42835398   333.11814765
 N     16   6   4     2.513012402325   110.59984024   155.49140257
 C     18  16   6     2.760267098533   119.00826184   172.88689268
 C     18  16   6     2.761264116489   125.17366910   355.87322289
 H     20  18  16     2.047559048397   110.90564314   346.70735208
 H     20  18  16     2.060104999222   108.42693408   226.97798202
 H     20  18  16     2.062859254434   109.89995320   108.10388552
 H     19  18  16     2.049059742658   109.77184093     0.75428306
 H     19  18  16     2.062254749870   109.34972940   240.36558985
 H     19  18  16     2.061338228959   109.37088981   121.14901696
 H      3   2   1     2.043875187007   120.80363534   179.66115751
 H      1   2   3     2.039844420867   120.25469899   182.05100052
 H      2   1   3     2.041252368834   120.20570676   179.19947984
 H      8   7   5     2.043319045637   119.40051043   180.41605105
 H      9   8   7     2.045263165654   119.88345932   179.55925997
 H     13  12  10     2.038353868473   115.39345153   179.85987363
 H     14  13  12     2.041663044265   119.05142040   179.89749002
 H     15  14  13     2.039975878275   121.62258174   179.52284054
 H     12  10   5     1.899981789597   118.87499752     0.41492365

------------------------------------------------------------------------------
                   ___                                                        
                  /   \      - P O W E R E D   B Y -                         
                 /     \                                                     
                 |  |  |   _    _      __       _____    __    __             
                 |  |  |  | |  | |    /  \     |  _  \  |  |  /  |          
                  \  \/   | |  | |   /    \    | | | |  |  | /  /          
                 / \  \   | |__| |  /  /\  \   | |_| |  |  |/  /          
                |  |  |   |  __  | /  /__\  \  |    /   |      \           
                |  |  |   | |  | | |   __   |  |    \   |  |\   \          
                \     /   | |  | | |  |  |  |  | |\  \  |  | \   \       
                 \___/    |_|  |_| |__|  |__|  |_| \__\ |__|  \__/        
                                                                              
                      - O R C A' S   B I G   F R I E N D -                    
                                      &                                       
                       - I N T E G R A L  F E E D E R -                       
                                                                              
 v1 FN, 2020, v2 2021, v3 2022-2024                                           
------------------------------------------------------------------------------


----------------------
SHARK INTEGRAL PACKAGE
----------------------

Number of atoms                             ...     35
Number of basis functions                   ...    570
Number of shells                            ...    260
Maximum angular momentum                    ...      2
Integral batch strategy                     ... SHARK/LIBINT Hybrid
RI-J (if used) integral strategy            ... SPLIT-RIJ (Revised 2003 algorithm where possible)
Printlevel                                  ...      1
Contraction scheme used                     ... SEGMENTED contraction
Prescreening option                         ... SCHWARTZ
   Thresh                                   ... 2.500e-11
   Tcut                                     ... 2.500e-12
   Tpresel                                  ... 2.500e-12 
Coulomb Range Separation                    ... NOT USED
Exchange Range Separation                   ... NOT USED
Multipole approximations                    ... NOT USED
Finite Nucleus Model                        ... NOT USED
CABS basis                                  ... NOT available
Auxiliary Coulomb fitting basis             ... AVAILABLE
   # of basis functions in Aux-J            ...   1145
   # of shells in Aux-J                     ...    375
   Maximum angular momentum in Aux-J        ...      4
Auxiliary J/K fitting basis                 ... NOT available
Auxiliary Correlation fitting basis         ... AVAILABLE
   # of basis functions in Aux-C            ...   1745
   # of shells in Aux-C                     ...    545
   Maximum angular momentum in Aux-C        ...      4
Auxiliary 'external' fitting basis          ... NOT available

Checking pre-screening integrals            ... done (  0.0 sec) Dimension = 260
Check shell pair data                       ... done (  0.0 sec)
Shell pair information
Shell pair cut-off parameter TPreSel        ...   2.5e-12
Total number of shell pairs                 ...     33930
Shell pairs after pre-screening             ...     25284
Total number of primitive shell pairs       ...    111170
Primitive shell pairs kept                  ...     55007
          la=0 lb=0:   7470 shell pairs
          la=1 lb=0:   8325 shell pairs
          la=1 lb=1:   2327 shell pairs
          la=2 lb=0:   4201 shell pairs
          la=2 lb=1:   2346 shell pairs
          la=2 lb=2:    615 shell pairs

Calculating one electron integrals          ... done (  0.1 sec)
Calculating RI/J V-Matrix + Cholesky decomp.... done (  0.2 sec)
Calculating RI/C V-Matrix + Cholesky decomp.... done (  0.5 sec)
Calculating Nuclear repulsion               ... done (  0.0 sec) ENN=   1506.966150542902 Eh

Diagonalization of the overlap matrix:
Smallest eigenvalue                        ... 3.486e-06
Time for diagonalization                   ...    0.030 sec
Threshold for overlap eigenvalues          ... 1.000e-07
Number of eigenvalues below threshold      ... 0
Time for construction of square roots      ...    0.040 sec
Total time needed                          ...    0.080 sec

-------------------
DFT GRID GENERATION
-------------------

General Integration Accuracy     IntAcc      ... 4.388
Radial Grid Type                 RadialGrid  ... OptM3 with GC (2021)
Angular Grid (max. ang.)         AngularGrid ... 4 (Lebedev-302)
Angular grid pruning method      GridPruning ... 4 (adaptive)
Weight generation scheme         WeightScheme... mBecke (2022)
Basis function cutoff            BFCut       ... 1.0000e-11
Integration weight cutoff        WCut        ... 1.0000e-14
Partially contracted basis set               ... off
Rotationally invariant grid construction     ... off
Angular grids for H and He will be reduced by one unit

Total number of grid points                  ...   167559
Total number of batches                      ...     2638
Average number of points per batch           ...       63
Average number of grid points per atom       ...     4787

--------------------
COSX GRID GENERATION
--------------------

GRIDX 1
-------
General Integration Accuracy     IntAcc      ... 3.816
Radial Grid Type                 RadialGrid  ... OptM3 with GC (2021)
Angular Grid (max. ang.)         AngularGrid ... 1 (Lebedev-50)
Angular grid pruning method      GridPruning ... 4 (adaptive)
Weight generation scheme         WeightScheme... mBecke (2022)
Basis function cutoff            BFCut       ... 1.0000e-11
Integration weight cutoff        WCut        ... 1.0000e-14
Partially contracted basis set               ... on
Rotationally invariant grid construction     ... off
Angular grids for H and He will be reduced by one unit

Total number of grid points                  ...    21318
Total number of batches                      ...      185
Average number of points per batch           ...      115
Average number of grid points per atom       ...      609
UseSFitting                                  ... on

GRIDX 2
-------
General Integration Accuracy     IntAcc      ... 4.020
Radial Grid Type                 RadialGrid  ... OptM3 with GC (2021)
Angular Grid (max. ang.)         AngularGrid ... 2 (Lebedev-110)
Angular grid pruning method      GridPruning ... 4 (adaptive)
Weight generation scheme         WeightScheme... mBecke (2022)
Basis function cutoff            BFCut       ... 1.0000e-11
Integration weight cutoff        WCut        ... 1.0000e-14
Partially contracted basis set               ... on
Rotationally invariant grid construction     ... off
Angular grids for H and He will be reduced by one unit

Total number of grid points                  ...    46383
Total number of batches                      ...      377
Average number of points per batch           ...      123
Average number of grid points per atom       ...     1325
UseSFitting                                  ... on

GRIDX 3
-------
General Integration Accuracy     IntAcc      ... 4.338
Radial Grid Type                 RadialGrid  ... OptM3 with GC (2021)
Angular Grid (max. ang.)         AngularGrid ... 3 (Lebedev-194)
Angular grid pruning method      GridPruning ... 4 (adaptive)
Weight generation scheme         WeightScheme... mBecke (2022)
Basis function cutoff            BFCut       ... 1.0000e-11
Integration weight cutoff        WCut        ... 1.0000e-14
Partially contracted basis set               ... on
Rotationally invariant grid construction     ... off
Angular grids for H and He will be reduced by one unit

Total number of grid points                  ...   101598
Total number of batches                      ...      809
Average number of points per batch           ...      125
Average number of grid points per atom       ...     2903
UseSFitting                                  ... on
Initializing property integral containers    ... done (  0.0 sec)

SHARK setup successfully completed in   6.8 seconds

Maximum memory used throughout the entire STARTUP-calculation: 107.5 MB
Occupation numbers will be reassigned to an Aufbau configuration
             **** ENERGY FILE WAS UPDATED (HBQ-H.en.tmp) ****
Finished Guess after   0.8 sec
Maximum memory used throughout the entire GUESS-calculation: 68.9 MB
--------------------
CPCM SOLVATION MODEL
--------------------
CPCM parameters:
  Epsilon                                         ...      80.1510
  Refrac                                          ...       1.3328
  Rsolv                                           ...       1.3000
  Surface type                                    ... GAUSSIAN VDW
  Discretization scheme                           ... Constant charge density
    Threshold for H atoms                         ...       5.0000 (charges/Ang^2)
    Threshold for non-H atoms                     ...       5.0000 (charges/Ang^2)
  Epsilon function type                           ...         CPCM
Solvent:                                          ... WATER
Radii:
  Scheme                                          ... Element-dependent radii
  Radius for C  used is    3.8550 Bohr (=   2.0400 Ang.)
  Radius for O  used is    3.4469 Bohr (=   1.8240 Ang.)
  Radius for N  used is    3.5149 Bohr (=   1.8600 Ang.)
  Radius for H  used is    2.4944 Bohr (=   1.3200 Ang.)
Calculating surface                               ...        done! (  0.0s)
Cavity surface points                             ...         3051
Cavity Volume                                     ...    2130.5363
Cavity Surface-area                               ...    1085.7196
Calculating surface distance matrix               ...        done! (  0.0s)
Performing Cholesky decomposition & store         ...        done! (  0.9s)
Overall time for CPCM initialization              ...                 0.9s

----------------------------------------D-I-I-S--------------------------------------------
Iteration    Energy (Eh)           Delta-E    RMSDP     MaxDP     DIISErr   Damp  Time(sec)
-------------------------------------------------------------------------------------------
               ***  Starting incremental Fock matrix formation  ***
    1    -878.3686275166651285     0.00e+00  7.01e-05  3.12e-03  1.54e-02  0.700  36.9
    2    -878.3690385162717575    -4.11e-04  6.33e-05  3.10e-03  1.21e-02  0.700  15.6
                               ***Turning on AO-DIIS***
    3    -878.3693580345543523    -3.20e-04  4.97e-05  2.41e-03  9.03e-03  0.700  15.8
    4    -878.3695922079377851    -2.34e-04  1.27e-04  7.91e-03  6.51e-03  0.000  16.0
                              *** Initializing SOSCF ***
---------------------------------------S-O-S-C-F--------------------------------------
Iteration    Energy (Eh)           Delta-E    RMSDP     MaxDP     MaxGrad    Time(sec)
--------------------------------------------------------------------------------------
    5    -878.3701737433298149    -5.82e-04  9.48e-06  7.85e-04  2.64e-04    16.6
               *** Restarting incremental Fock matrix formation ***
    6    -878.3701745676371502    -8.24e-07  1.14e-05  5.09e-04  5.71e-05    37.5
    7    -878.3701746420515519    -7.44e-08  1.13e-05  1.08e-03  5.25e-05    21.2
    8    -878.3701747890395382    -1.47e-07  6.90e-06  6.49e-04  1.51e-05    19.5
    9    -878.3701748140201744    -2.50e-08  8.25e-06  8.02e-04  9.19e-06    19.1
   10    -878.3701748061257604     7.89e-09  5.01e-06  4.28e-04  6.43e-06    16.4
                 **** Energy Check signals convergence ****

               *****************************************************
               *                     SUCCESS                       *
               *           SCF CONVERGED AFTER  10 CYCLES          *
               *****************************************************

Recomputing exchange energy using gridx3       ... done (   58.784 sec)
Old exchange energy                            :    -23.567133562 Eh
New exchange energy                            :    -23.567113185 Eh
Exchange energy change after final integration :      0.000020377 Eh
Total energy after final integration           :   -878.370154429 Eh
             **** ENERGY FILE WAS UPDATED (HBQ-H.en.tmp) ****

----------------
TOTAL SCF ENERGY
----------------

Total Energy       :       -878.37015442913082 Eh          -23901.66704 eV

Components:
Nuclear Repulsion  :       1506.96615054290214 Eh           41006.63369 eV
Electronic Energy  :      -2385.24927977025573 Eh          -64905.93266 eV
One Electron Energy:      -4165.59441108978808 Eh         -113351.58661 eV
Two Electron Energy:       1780.34513131953236 Eh           48445.65395 eV
CPCM Dielectric    :         -0.08704557877227 Eh              -2.36863 eV

Virial components:
Potential Energy   :      -1752.80358029528043 Eh          -47696.21025 eV
Kinetic Energy     :        874.43342586614949 Eh           23794.54321 eV
Virial Ratio       :          2.00450203348423

DFT components:
N(Alpha)           :       69.999984010499 electrons
N(Beta)            :       69.999984010499 electrons
N(Total)           :      139.999968020998 electrons
E(X)               :      -93.696369736969 Eh       
E(C)               :       -5.639000645548 Eh       
E(XC)              :      -99.335370382517 Eh       

CPCM Solvation Model Properties:
Surface-charge          :         -1.02880250582023
Corrected charge        :         -1.00000000000000
Outlying charge corr.   :          0.00004610514824 Eh               0.00125 eV
Free-energy (cav+disp)  :  This term is not implemented in the current solvation scheme

---------------
SCF CONVERGENCE
---------------

  Last Energy change         ...   -7.8944e-09  Tolerance :   1.0000e-08
  Last MAX-Density change    ...    4.2751e-04  Tolerance :   1.0000e-07
  Last RMS-Density change    ...    5.0131e-06  Tolerance :   5.0000e-09
  Last DIIS Error            ...    2.6441e-04  Tolerance :   5.0000e-07
  Last Orbital Gradient      ...    6.4296e-06  Tolerance :   1.0000e-05
  Last Orbital Rotation      ...    1.0565e-05  Tolerance :   1.0000e-05


Total SCF time: 0 days 0 hours 4 min 35 sec 
Finished LeanSCF after 275.6 sec

Maximum memory used throughout the entire LEANSCF-calculation: 130.2 MB

------------------------------------------------------------------------------
                         ORCA PROPERTY INTEGRAL CALCULATIONS
------------------------------------------------------------------------------

GBWName                                   ... HBQ-H.gbw
Number of atoms                           ...     35
Number of basis functions                 ...    570
Max core memory                           ...   1024 MB

Dipole integrals                          ... YES
Quadrupole integrals                      ...  NO
Linear momentum integrals                 ... YES
Angular momentum integrals                ... YES
Higher moments length integrals           ...  NO
Higher moments velocity integrals         ...  NO
Kinetic energy integrals                  ...  NO
GIAO right hand sides                     ...  NO
GIAO dipole derivative integrals          ...  NO
SOC integrals                             ...  NO
EPR diamagnetic integrals (GIAO)          ...  NO
EPR gauge integrals                       ...  NO
Field gradient integrals                  ...  NO (   0 nuclei)
Spin-dipole/Fermi contact integrals       ...  NO (   0 nuclei)
Contact density integrals                 ...  NO (   0 nuclei)
Nucleus-orbit integrals                   ...  NO (   0 nuclei)
Geometric perturbations                   ...  NO (  35 nuclei)

Choice of electric origin   ... Center of mass
Position of electric origin ... ( -2.5790,  2.1498,  0.9724) 
Choice of magnetic origin   ... GIAO
Position of magnetic origin ... (  0.0000,  0.0000,  0.0000) 

Calculating integrals                     ... Electric Dipole (Length)     done (  0.6 sec)
Calculating integrals                     ... Linear Momentum              done (  0.3 sec)
Calculating integrals                     ... Angular Momentum  (ElOri)    done (  0.3 sec)

Property integrals calculated in   1.3 sec

Maximum memory used throughout the entire PROPINT-calculation: 71.3 MB
------------------------------------------------------------------------------
                        ORCA TD-DFT/TDA CALCULATION
------------------------------------------------------------------------------

Input orbitals are from        ... HBQ-H.gbw
CI-vector output               ... HBQ-H.cis
Solver                         ... FN-2001
Tamm-Dancoff approximation     ... operative
CIS-Integral strategy          ... AO-integrals
Integral handling              ... AO integral Direct
Max. core memory used          ... 512 MB
Reference state                ... RHF
Generation of triplets         ... off
Follow IRoot                   ... off
Number of operators            ... 1
Orbital ranges used for CIS calculation:
 Operator 0:  Orbitals  20... 69  to  70...569
XAS localization array:
 Operator 0:  Orbitals  -1... -1

-------------------
XC-INTEGRATION GRID
-------------------

General Integration Accuracy     IntAcc      ... 3.467
Radial Grid Type                 RadialGrid  ... OptM3 with GC (2021)
Angular Grid (max. ang.)         AngularGrid ... 1 (Lebedev-50)
Angular grid pruning method      GridPruning ... 4 (adaptive)
Weight generation scheme         WeightScheme... mBecke (2022)
Basis function cutoff            BFCut       ... 1.0000e-11
Integration weight cutoff        WCut        ... 1.0000e-14
Partially contracted basis set               ... off
Rotationally invariant grid construction     ... off
Angular grids for H and He will be reduced by one unit

Total number of grid points                  ...    24526
Total number of batches                      ...      400
Average number of points per batch           ...       61
Average number of grid points per atom       ...      701

---------------------
COSX-INTEGRATION GRID
---------------------

General Integration Accuracy     IntAcc      ... 3.067
Radial Grid Type                 RadialGrid  ... OptM3 with GC (2021)
Angular Grid (max. ang.)         AngularGrid ... 1 (Lebedev-50)
Angular grid pruning method      GridPruning ... 4 (adaptive)
Weight generation scheme         WeightScheme... mBecke (2022)
Basis function cutoff            BFCut       ... 1.0000e-11
Integration weight cutoff        WCut        ... 1.0000e-14
Partially contracted basis set               ... on
Rotationally invariant grid construction     ... off
Angular grids for H and He will be reduced by one unit

Total number of grid points                  ...    11333
Total number of batches                      ...      112
Average number of points per batch           ...      101
Average number of grid points per atom       ...      324

---------------
TD-DFT XC SETUP
---------------

DFT calculation                         ... on
Name of the grid file                   ... HBQ-H.grid_cis.tmp
RI-approximation                        ... on
Aux-basis dimension                     ... 1745
Exchange functional (TD-DFT)            ... B88
   X-Alpha parameter    XAlpha (TD-DFT) ...  0.666667
   Becke's b parameter  XBeta (TD-DFT)  ...  0.004200
Correlation functional (TD-DFT)         ... LYP
 LDA part of GGA corr.  LDAOpt (TD-DFT) ... VWN-5
Hybrid DFT                              ... on
   Exchange mixing (TD-DFT)             ...  0.200
   GGA exch. scaling (TD-DFT)           ...  0.720
   GGA corr. scaling (TD-DFT)           ...  0.810

Building densities             ... done
Calculating rho(r) on the grid ... done
Building xc-kernel on the grid ... done
                    *** TD-DFT CALCULATION INITIALIZED ***

-----------------------------
    LR-CPCM (equilibrium)
-----------------------------

Setting up LR-CPCM             ... done

------------------------
DAVIDSON-DIAGONALIZATION
------------------------

Dimension of the eigenvalue problem            ...  25000
Number of roots to be determined               ...      1
Maximum size of the expansion space            ...     10
Maximum number of iterations                   ...    100
Convergence tolerance for the residual         ...    2.500e-07
Convergence tolerance for the energies         ...    2.500e-07
Orthogonality tolerance                        ...    1.000e-14
Level Shift                                    ...    0.000e+00
Constructing the preconditioner                ... o.k.
Building the initial guess                     ... o.k.
Number of trial vectors determined             ...     10


                       ****Iteration    0****
   Time for iteration     :  TOTAL=21.9 TRAFO=0.0 RIJ=3.9 COSX=8.2 XC=1.5
   Size of expansion space: 3
   Lowest Energy          :     0.117637463845
   Maximum Energy change  :     0.117637463845 (vector 0)
   Maximum residual norm  :     0.010477176480

                       ****Iteration    1****
   Time for iteration     :  TOTAL=16.4 TRAFO=0.0 RIJ=2.5 COSX=6.9 XC=0.5
   Size of expansion space: 4
   Lowest Energy          :     0.107027432341
   Maximum Energy change  :     0.010610031505 (vector 0)
   Maximum residual norm  :     0.000215096859

                       ****Iteration    2****
   Time for iteration     :  TOTAL=16.5 TRAFO=0.0 RIJ=2.5 COSX=7.0 XC=0.5
   Size of expansion space: 5
   Lowest Energy          :     0.106770619233
   Maximum Energy change  :     0.000256813108 (vector 0)
   Maximum residual norm  :     0.000034124959

                       ****Iteration    3****
   Time for iteration     :  TOTAL=16.5 TRAFO=0.0 RIJ=2.6 COSX=6.9 XC=0.5
   Size of expansion space: 6
   Lowest Energy          :     0.106712727768
   Maximum Energy change  :     0.000057891465 (vector 0)
   Maximum residual norm  :     0.000004750997

                       ****Iteration    4****
   Time for iteration     :  TOTAL=16.9 TRAFO=0.0 RIJ=2.5 COSX=7.2 XC=0.5
   Size of expansion space: 7
   Lowest Energy          :     0.106707575652
   Maximum Energy change  :     0.000005152115 (vector 0)
   Maximum residual norm  :     0.000000684712

                       ****Iteration    5****
   Time for iteration     :  TOTAL=16.7 TRAFO=0.0 RIJ=2.5 COSX=7.1 XC=0.5
   Size of expansion space: 8
   Lowest Energy          :     0.106706803424
   Maximum Energy change  :     0.000000772228 (vector 0)
   Maximum residual norm  :     0.000000051869

      *** CONVERGENCE OF RESIDUAL NORM REACHED ***

Storing the converged CI vectors               ... HBQ-H.cis1

                 *** DAVIDSON DONE ***

Total time for solving the CIS problem:   105.740sec

------------------------------------
TD-DFT/TDA EXCITED STATES (SINGLETS)
------------------------------------

the weight of the individual excitations are printed if larger than 1.0e-02

STATE  1:  E=   0.106707 au      2.904 eV    23419.4 cm**-1 <S**2> =   0.000000 Mult 1
    67a ->  71a  :     0.013737 (c=  0.11720520)
    69a ->  70a  :     0.966321 (c= -0.98301607)


-----------------------------
TD-DFT/TDA-EXCITATION SPECTRA
-----------------------------

Center of mass = ( -2.5790,  2.1498,  0.9724)
Generating CIS transition densities           ... done

----------------------------------------------------------------------------------------------------
                     ABSORPTION SPECTRUM VIA TRANSITION ELECTRIC DIPOLE MOMENTS    
----------------------------------------------------------------------------------------------------
     Transition      Energy     Energy  Wavelength fosc(D2)      D2        DX        DY        DZ   
                      (eV)      (cm-1)    (nm)                 (au**2)    (au)      (au)      (au)  
----------------------------------------------------------------------------------------------------
  0-1A  ->  1-1A    2.903640   23419.4   427.0   0.254941979   3.58377  -1.66303  -0.88920  -0.16561

----------------------------------------------------------------------------------------------------
                     ABSORPTION SPECTRUM VIA TRANSITION VELOCITY DIPOLE MOMENTS    
----------------------------------------------------------------------------------------------------
     Transition      Energy     Energy  Wavelength fosc(P2)      P2        PX        PY        PZ   
                      (eV)      (cm-1)    (nm)                 (au**2)    (au)      (au)      (au)  
----------------------------------------------------------------------------------------------------
  0-1A  ->  1-1A    2.903640   23419.4   427.0   0.060595834   0.00970   0.08755   0.04306   0.01343

------------------------------------------------------------------------------------------
                     CD SPECTRUM VIA TRANSITION ELECTRIC DIPOLE MOMENTS    
------------------------------------------------------------------------------------------
     Transition      Energy     Energy  Wavelength    R        MX        MY        MZ   
                      (eV)      (cm-1)    (nm)   (1e40*cgs)   (au)      (au)      (au)  
------------------------------------------------------------------------------------------
  0-1A  ->  1-1A    2.903640   23419.4   427.0    1.23003   0.06995  -0.18827   0.32416

------------------------------------------------------------------------------------------
                     CD SPECTRUM VIA TRANSITION VELOCITY DIPOLE MOMENTS    
------------------------------------------------------------------------------------------
     Transition      Energy     Energy  Wavelength    R        MX        MY        MZ   
                      (eV)      (cm-1)    (nm)   (1e40*cgs)   (au)      (au)      (au)  
------------------------------------------------------------------------------------------
  0-1A  ->  1-1A    2.903640   23419.4   427.0   10.47618   0.06995  -0.18827   0.32416

Total run time:      107.073 sec

           *** ORCA-CIS/TD-DFT FINISHED WITHOUT ERROR ***
-----------------------
CIS/TD-DFT TOTAL ENERGY
-----------------------

    E(SCF)  =   -878.370154429 Eh
    DE(CIS) =      0.106706803 Eh (Root  1)
    ----------------------------- ---------
    E(tot)  =   -878.263447626 Eh


------------------------
TD-DFT GRADIENT XC SETUP
------------------------

Building densities                     ... done
Calculating rho(r) on the grid         ... done
Building xc-kernel on the grid         ... done
Building xc 3rd derivative on the grid ... done
                *** TD-DFT GRADIENT CALCULATION INITIALIZED ***

--------------------------
TD-DFT/TDA RELAXED DENSITY
--------------------------

Reference wavefunction             ... RHF
State of interest                  ... 1
Basis dimension                    ... 570
DFT-XC contribution needed         ... YES
RI-approximation                   ... YES
Do Coulomb                         ... YES
Do Exchange                        ... YES
Need Hartree-Fock Exchange         ... YES
facj, facx                         ...  2.000, -0.200
Conventional                       ... NO
Range separation                   ... NO
Triplet state                      ... NO
Spin Flip                          ... NO
CIS-vectors being read from        ... HBQ-H.cis
 => Number of Vectors found: 1
 => Orbital Window: 20...69 -> 70...569

Reading the CIS file                     ... done
Norm of the CI vector                    ... 1.000000000
Reading the CPCM file                    ... done
Making the CIS (pseudo)densities         ... done
Making operators G(D) and Q(T)           ... (SHARK-ok)done
Transforming the Fock operators          ... done
Making the frozen-core relaxed density   ... done
Constructing the G(H) operator           ... (SHARK-ok)done
Transforming the G(H) operator           ... done
Calculating the CIS Lagrangian           ... done
Solving the Z-vector equations           ... 

Using XC Grid                  ... (HBQ-H.grid_cpscf.tmp) 
Recalculating density on grid  ... (HBQ-H.grho_cpscf0.tmp) done
Calculating the xc-kernel      ... (HBQ-H.fxc_cpscf0.tmp) done

-------------------
SHARK CP-SCF DRIVER
-------------------

Dimension of the orbital basis          ...    570
Dimension of the CPSCF-problem          ...  35000
Number of operators                     ...      1
Max. number of iterations               ...    128
Convergence Tolerance                   ... 1.0e-04
Number of perturbations                 ...      1
Perturbation type                       ... REAL

----------------------------
POPLE LINEAR EQUATION SOLVER
----------------------------

  ITERATION   0:   ||err||_max =   1.6828e+00 (  16.7 sec)
  ITERATION   1:   ||err||_max =   8.9918e-02 (  16.2 sec)
  ITERATION   2:   ||err||_max =   1.8999e-02 (  16.6 sec)
  ITERATION   3:   ||err||_max =   6.4095e-03 (  16.4 sec)
  ITERATION   4:   ||err||_max =   2.3832e-03 (  16.5 sec)
  ITERATION   5:   ||err||_max =   1.0496e-03 (  16.3 sec)
  ITERATION   6:   ||err||_max =   3.1039e-04 (  16.3 sec)
  ITERATION   7:   ||err||_max =   1.3378e-04 (  16.3 sec)
  ITERATION   8:   ||err||_max =   3.4783e-05 (  16.8 sec)

Finalizing the relaxed density           ... done
Storing the relaxed density              ... done
Constructing the G(Z) operator           ... (SHARK-ok)done
Adding the CPCM contribution             ... done
Adding the XC terms                      ... done
Transforming the G(Z) operator           ... done
Making the W-matrix                      ... done
Finalizing the W-matrix                  ... done
Transforming the W-matrix                ... done
Nuc. rep. gradient        (SHARK) ... done (  0.0 sec)
HCore & Overlap gradient  (SHARK) ... done (  2.0 sec)
Split-RIJ-J gradient      (SHARK) ... done ( 11.5 sec)
COSX-gradient                     ... done (112.0 sec)
CPCM gradient                     ... done (  9.4 sec)
Dispersion correction             ... done (  0.0 sec)

-------------------
DISPERSION GRADIENT
-------------------

   1   C   :   -0.000564156   -0.000586828   -0.000116678
   2   C   :   -0.000486933   -0.000674115   -0.000243823
   3   C   :   -0.000233733   -0.000731779   -0.000382581
   4   C   :   -0.000442259   -0.000283996   -0.000054826
   5   C   :   -0.000007188   -0.000218686   -0.000071213
   6   O   :   -0.000239641    0.000060308    0.000095488
   7   C   :    0.000138057   -0.000568732   -0.000368787
   8   C   :    0.000577318   -0.000527132   -0.000461404
   9   C   :    0.000702676   -0.000377864   -0.000398167
  10   C   :    0.000262743    0.000258243    0.000109269
  11   C   :    0.000659871    0.000043924   -0.000127562
  12   N   :    0.000200747    0.000588918    0.000293942
  13   C   :    0.000203630    0.000703219    0.000367794
  14   C   :    0.000452442    0.000562188    0.000236787
  15   C   :    0.000745011    0.000356287    0.000042239
  16   C   :   -0.000583373    0.000238526   -0.000217335
  17   O   :   -0.000442527    0.000236015   -0.000493308
  18   N   :   -0.000383315    0.000288071    0.000257185
  19   C   :   -0.000472294    0.000295727    0.000040197
  20   C   :   -0.000079145    0.000116545    0.000689120
  21   H   :    0.000002579   -0.000025167    0.000447229
  22   H   :   -0.000006757   -0.000040251    0.000332613
  23   H   :    0.000067824    0.000163380    0.000334075
  24   H   :   -0.000241282    0.000131056   -0.000085372
  25   H   :   -0.000196877    0.000264339    0.000027735
  26   H   :   -0.000306972    0.000072116    0.000086189
  27   H   :   -0.000001235   -0.000335110   -0.000204542
  28   H   :   -0.000324159   -0.000233483   -0.000006594
  29   H   :   -0.000216552   -0.000257098   -0.000098016
  30   H   :    0.000214508   -0.000259142   -0.000212261
  31   H   :    0.000334868   -0.000140212   -0.000164989
  32   H   :   -0.000014623    0.000305357    0.000180306
  33   H   :    0.000211030    0.000231630    0.000092028
  34   H   :    0.000376414    0.000068266   -0.000048722
  35   H   :    0.000093300    0.000275482    0.000123982

Difference to translation invariance:
           :   -0.0000000000    0.0000000000   -0.0000000000

Difference to rotation invariance:
           :   -0.0000000000   -0.0000000000   -0.0000000000

Norm of the Dispersion gradient    ...    0.0034208808
RMS gradient                       ...    0.0003338438
MAX gradient                       ...    0.0007450108

                 ---------------------------
                 EXCITED STATE GRADIENT DONE
                 ---------------------------

------------------
CARTESIAN GRADIENT
------------------

   1   C   :    0.000275284    0.000068401   -0.000126973
   2   C   :   -0.000341525   -0.000249678    0.000002348
   3   C   :   -0.000022504   -0.000257719   -0.000072246
   4   C   :    0.000052557   -0.000015005    0.000369503
   5   C   :   -0.000266442    0.000171982    0.000080594
   6   O   :    0.000550939    0.000210324    0.000143382
   7   C   :   -0.000073789    0.000173876    0.000083267
   8   C   :    0.000045410   -0.000047604    0.000003749
   9   C   :    0.000238382   -0.000176571   -0.000191421
  10   C   :    0.000205878   -0.000250685   -0.000276381
  11   C   :   -0.000084573    0.000085705    0.000110506
  12   N   :   -0.000195840   -0.000269488   -0.000057299
  13   C   :   -0.000078465    0.000230119    0.000157065
  14   C   :    0.000110294    0.000129709    0.000000244
  15   C   :    0.000026735    0.000030309   -0.000016084
  16   C   :   -0.000893755    0.000190984    0.000042069
  17   O   :    0.000275588   -0.000100986    0.000162612
  18   N   :    0.000567485   -0.000475457   -0.000163124
  19   C   :   -0.000131219    0.000159475   -0.000065669
  20   C   :   -0.000028246    0.000173455   -0.000333198
  21   H   :    0.000192619   -0.000129849   -0.000087011
  22   H   :    0.000006606   -0.000014580   -0.000011669
  23   H   :   -0.000022909   -0.000048563    0.000064390
  24   H   :   -0.000074951    0.000019976    0.000088928
  25   H   :   -0.000052191    0.000000883   -0.000012558
  26   H   :   -0.000006920    0.000015535    0.000000901
  27   H   :    0.000000731    0.000000990    0.000012820
  28   H   :   -0.000203569    0.000039698    0.000029246
  29   H   :   -0.000025758    0.000006040    0.000028217
  30   H   :    0.000077874    0.000043668   -0.000014109
  31   H   :   -0.000035459   -0.000088614   -0.000049093
  32   H   :    0.000014390    0.000018456   -0.000042166
  33   H   :   -0.000012242   -0.000001317   -0.000025898
  34   H   :   -0.000006332    0.000021202   -0.000000417
  35   H   :   -0.000192780    0.000298826    0.000256116

Difference to translation invariance:
           :   -0.0001086990   -0.0000365017    0.0000906393

Difference to rotation invariance:
           :   -0.0014528801    0.0022347858    0.0005444269

Norm of the Cartesian gradient     ...    0.0019056887
RMS gradient                       ...    0.0001859762
MAX gradient                       ...    0.0008937553

------------------------------------------------------------------------------
                  RELAXED CIS/TDA DENSITY POPULATION ANALYSIS
                                   IROOT 1
------------------------------------------------------------------------------
------------------------------------------------------------------------------
                           ORCA POPULATION ANALYSIS
------------------------------------------------------------------------------
Input electron density              ... HBQ-H.cispre.singlet.iroot1
BaseName (.gbw .S,...)              ... HBQ-H

-------
TIMINGS
-------

Total TD-DFT gradient time  ....      470.758 sec

Fock matrix formation       ....     123.769 sec  ( 26.3%)
  Coulomb formation         ....     112.441 sec  ( 90.8% of F)
  XC integration            ....      11.327 sec  (  9.2% of F)
Z-vector equation           ....     148.924 sec  ( 31.6%)
Densities                   ....       0.000 sec  (  0.0%)
One electron gradient       ....       2.011 sec  (  0.4%)
RI-J Coulomb gradient       ....      11.450 sec  (  2.4%)
COSX gradient               ....      26.274 sec  (  5.6%)
XC gradient                 ....     111.952 sec  ( 23.8%)
CPCM gradient               ....       9.446 sec  (  2.0%)
   A-Matrix (El+Nuc)        ....       0.239 sec  (  0.1%)
   Potential                ....       9.206 sec  (  2.0%)

Maximum memory used throughout the entire CIS-calculation: 268.3 MB
=> NOW LEAVING ORCA_CIS


-------------------------------------------------------------------------------
                          DFT DISPERSION CORRECTION                            
                                                                               
                              DFTD3 V3.1  Rev 1                                
                          USING Becke-Johnson damping                          
-------------------------------------------------------------------------------
-------------------------   ----------------
Dispersion correction           -0.077350700
-------------------------   ----------------


-------------------------   --------------------
FINAL SINGLE POINT ENERGY      -878.340798325970
-------------------------   --------------------

------------------------------------------------------------------------------
                         ORCA GEOMETRY RELAXATION STEP
------------------------------------------------------------------------------

Reading the OPT-File                    .... done
Getting information on internals        .... done
Copying old internal coords+grads       .... done
Making the new internal coordinates     .... (2022 redundants) done
Validating the new internal coordinates .... (2022 redundants) done
Calculating the B-matrix                .... done
Calculating the G,G- and P matrices     .... done
Transforming gradient to internals      .... done
Projecting the internal gradient        .... done
Number of atoms                         ....  35
Number of internal coordinates          .... 181
Current Energy                          ....  -878.340798326 Eh
Current gradient norm                   ....     0.001905689 Eh/bohr
Maximum allowed component of the step   ....  0.300
Current trust radius                    ....  0.300
Updating the Hessian (BFGS)             .... done
Forming the augmented Hessian           .... done
Diagonalizing the augmented Hessian     .... done
Last element of RFO vector              ....  0.999903051
Lowest eigenvalues of augmented Hessian:
 -0.000013589  0.015614908  0.015704982  0.019318582  0.020011130
Length of the computed step             ....  0.013925752
The final length of the internal step   ....  0.013925752
Converting the step to Cartesian space:
 Initial RMS(Int)=    0.0010350930
Transforming coordinates:
 Iter   0:  RMS(Cart)=    0.0075527267 RMS(Int)=    0.4669749173
done
Storing new coordinates                 .... done
The predicted energy change is          ....    -0.000006796
Previously predicted energy change      ....    -0.000138500
Actually observed energy change         ....    -0.000082805
Ratio of predicted to observed change   ....     0.597871363
New trust radius                        ....     0.300000000

                                .--------------------.
          ----------------------|Geometry convergence|-------------------------
          Item                value                   Tolerance       Converged
          ---------------------------------------------------------------------
          Energy change      -0.0000828050            0.0000050000      NO
          RMS gradient        0.0001619336            0.0001000000      NO
          MAX gradient        0.0008410832            0.0003000000      NO
          RMS step            0.0010350930            0.0020000000      YES
          MAX step            0.0074555564            0.0040000000      NO
          ........................................................
          Max(Bonds)      0.0005      Max(Angles)    0.09
          Max(Dihed)        0.43      Max(Improp)    0.00
          ---------------------------------------------------------------------

The optimization has not yet converged - more geometry cycles are needed


    ---------------------------------------------------------------------------
                         Redundant Internal Coordinates
                            (Angstroem and degrees)

        Definition                    Value    dE/dq     Step     New-Value
    ----------------------------------------------------------------------------
     1. B(C   1,C   0)                1.3884  0.000098 -0.0001    1.3883   
     2. B(C   2,C   1)                1.3774  0.000217 -0.0002    1.3773   
     3. B(C   3,C   0)                1.4088  0.000106 -0.0001    1.4087   
     4. B(C   4,C   3)                1.4186 -0.000312  0.0002    1.4188   
     5. B(O   5,C   3)                1.3514 -0.000310  0.0001    1.3515   
     6. B(C   6,C   4)                1.4282  0.000085 -0.0001    1.4281   
     7. B(C   6,C   2)                1.4308  0.000389 -0.0004    1.4303   
     8. B(C   7,C   6)                1.3990  0.000239 -0.0002    1.3988   
     9. B(C   8,C   7)                1.3809  0.000073 -0.0001    1.3808   
    10. B(C   9,C   4)                1.4280  0.000059 -0.0001    1.4279   
    11. B(C  10,C   9)                1.4055  0.000083 -0.0001    1.4054   
    12. B(C  10,C   8)                1.4163  0.000360 -0.0004    1.4159   
    13. B(N  11,C   9)                1.3876  0.000486 -0.0004    1.3872   
    14. B(C  12,N  11)                1.3740  0.000201 -0.0002    1.3738   
    15. B(C  13,C  12)                1.3667  0.000103 -0.0001    1.3666   
    16. B(C  14,C  13)                1.4006  0.000132 -0.0001    1.4004   
    17. B(C  14,C  10)                1.4209  0.000171 -0.0002    1.4207   
    18. B(C  15,O   5)                1.4207  0.000123 -0.0002    1.4205   
    19. B(O  16,C  15)                1.2118 -0.000257  0.0001    1.2119   
    20. B(N  17,C  15)                1.3298 -0.000772  0.0005    1.3303   
    21. B(C  18,N  17)                1.4607  0.000328 -0.0004    1.4602   
    22. B(C  19,N  17)                1.4612 -0.000279  0.0002    1.4614   
    23. B(H  20,C  19)                1.0835  0.000233 -0.0003    1.0832   
    24. B(H  21,C  19)                1.0902 -0.000007  0.0000    1.0902   
    25. B(H  22,C  19)                1.0916 -0.000049  0.0001    1.0917   
    26. B(H  23,C  18)                1.0843 -0.000047  0.0001    1.0844   
    27. B(H  24,C  18)                1.0913 -0.000012  0.0000    1.0913   
    28. B(H  25,C  18)                1.0908 -0.000009  0.0000    1.0908   
    29. B(H  26,C   2)                1.0816 -0.000004 -0.0000    1.0816   
    30. B(H  27,C   0)                1.0794  0.000197 -0.0003    1.0792   
    31. B(H  28,C   1)                1.0802  0.000001 -0.0000    1.0802   
    32. B(H  29,C   7)                1.0813 -0.000007 -0.0000    1.0813   
    33. B(H  30,C   8)                1.0823 -0.000005 -0.0000    1.0823   
    34. B(H  31,C  12)                1.0787 -0.000011  0.0000    1.0787   
    35. B(H  32,C  13)                1.0804 -0.000012  0.0000    1.0804   
    36. B(H  33,C  14)                1.0795 -0.000007 -0.0000    1.0795   
    37. B(H  34,O   5)                1.9480 -0.000103  0.0004    1.9484   
    38. B(H  34,N  11)                1.0054  0.000234 -0.0003    1.0051   
    39. A(C   1,C   0,H  27)          120.25 -0.000067    0.01    120.26   
    40. A(C   1,C   0,C   3)          121.17  0.000138   -0.02    121.15   
    41. A(C   3,C   0,H  27)          118.56 -0.000071    0.01    118.57   
    42. A(C   0,C   1,H  28)          120.21  0.000071   -0.01    120.20   
    43. A(C   0,C   1,C   2)          118.70 -0.000194    0.02    118.72   
    44. A(C   2,C   1,H  28)          121.09  0.000124   -0.01    121.07   
    45. A(C   1,C   2,C   6)          121.36 -0.000044    0.00    121.37   
    46. A(C   1,C   2,H  26)          120.80  0.000034   -0.00    120.80   
    47. A(C   6,C   2,H  26)          117.83  0.000011   -0.00    117.83   
    48. A(C   4,C   3,O   5)          118.45 -0.000151    0.01    118.46   
    49. A(C   0,C   3,C   4)          122.14  0.000104   -0.01    122.13   
    50. A(C   0,C   3,O   5)          119.31  0.000052   -0.02    119.29   
    51. A(C   3,C   4,C   9)          125.79 -0.000041    0.00    125.79   
    52. A(C   6,C   4,C   9)          118.52  0.000084   -0.01    118.51   
    53. A(C   3,C   4,C   6)          115.69 -0.000042    0.00    115.70   
    54. A(C   3,O   5,C  15)          120.20 -0.000393    0.04    120.25   
    55. A(C   2,C   6,C   7)          118.88  0.000050   -0.01    118.87   
    56. A(C   4,C   6,C   7)          120.19 -0.000089    0.01    120.20   
    57. A(C   2,C   6,C   4)          120.93  0.000039   -0.00    120.92   
    58. A(C   8,C   7,H  29)          120.35 -0.000136    0.02    120.37   
    59. A(C   6,C   7,H  29)          119.40  0.000064   -0.01    119.39   
    60. A(C   6,C   7,C   8)          120.25  0.000072   -0.01    120.24   
    61. A(C   7,C   8,H  30)          119.88 -0.000070    0.01    119.90   
    62. A(C  10,C   8,H  30)          118.40  0.000133   -0.02    118.38   
    63. A(C   7,C   8,C  10)          121.71 -0.000063    0.01    121.72   
    64. A(C  10,C   9,N  11)          117.07 -0.000001   -0.00    117.06   
    65. A(C   4,C   9,C  10)          120.81  0.000029   -0.01    120.80   
    66. A(C   4,C   9,N  11)          122.13 -0.000027    0.01    122.13   
    67. A(C   8,C  10,C  14)          120.65  0.000086   -0.02    120.64   
    68. A(C   9,C  10,C  14)          120.83 -0.000053    0.01    120.84   
    69. A(C   8,C  10,C   9)          118.52 -0.000032    0.01    118.53   
    70. A(C   9,N  11,H  34)          118.87  0.000402   -0.05    118.82   
    71. A(C   9,N  11,C  12)          122.56 -0.000042    0.00    122.56   
    72. A(C  12,N  11,H  34)          118.56 -0.000359    0.05    118.61   
    73. A(N  11,C  12,H  31)          115.39  0.000028   -0.01    115.39   
    74. A(C  13,C  12,H  31)          123.81 -0.000011    0.00    123.82   
    75. A(N  11,C  12,C  13)          120.79 -0.000018    0.00    120.80   
    76. A(C  12,C  13,H  32)          119.05 -0.000008    0.00    119.05   
    77. A(C  12,C  13,C  14)          119.74  0.000016   -0.00    119.74   
    78. A(C  14,C  13,H  32)          121.21 -0.000008    0.00    121.21   
    79. A(C  10,C  14,H  33)          119.36 -0.000025    0.00    119.37   
    80. A(C  10,C  14,C  13)          119.01  0.000098   -0.01    119.00   
    81. A(C  13,C  14,H  33)          121.62 -0.000073    0.01    121.63   
    82. A(O  16,C  15,N  17)          128.92  0.000663   -0.07    128.85   
    83. A(O   5,C  15,N  17)          110.60 -0.000841    0.09    110.69   
    84. A(O   5,C  15,O  16)          120.43  0.000179   -0.02    120.41   
    85. A(C  18,N  17,C  19)          115.76  0.000282   -0.03    115.72   
    86. A(C  15,N  17,C  19)          125.17 -0.000664    0.07    125.25   
    87. A(C  15,N  17,C  18)          119.01  0.000381   -0.04    118.97   
    88. A(H  24,C  18,H  25)          108.94 -0.000033    0.01    108.95   
    89. A(H  23,C  18,H  25)          109.69 -0.000072    0.01    109.71   
    90. A(N  17,C  18,H  25)          109.37 -0.000011    0.00    109.37   
    91. A(H  23,C  18,H  24)          109.70 -0.000063    0.01    109.71   
    92. A(N  17,C  18,H  24)          109.35  0.000055   -0.01    109.34   
    93. A(N  17,C  18,H  23)          109.77  0.000123   -0.02    109.75   
    94. A(H  21,C  19,H  22)          108.86 -0.000034    0.01    108.86   
    95. A(H  20,C  19,H  22)          109.64  0.000010   -0.00    109.64   
    96. A(N  17,C  19,H  22)          109.90  0.000129   -0.02    109.88   
    97. A(H  20,C  19,H  21)          109.07  0.000052   -0.00    109.07   
    98. A(N  17,C  19,H  21)          108.43 -0.000026    0.00    108.43   
    99. A(N  17,C  19,H  20)          110.91 -0.000130    0.02    110.92   
   100. D(H  28,C   1,C   0,H  27)      1.25 -0.000025    0.05      1.30   
   101. D(C   2,C   1,C   0,C   3)      0.56 -0.000028    0.05      0.61   
   102. D(H  28,C   1,C   0,C   3)    179.76  0.000006   -0.01    179.75   
   103. D(C   2,C   1,C   0,H  27)   -177.95 -0.000059    0.11   -177.83   
   104. D(C   6,C   2,C   1,C   0)      0.17 -0.000003    0.01      0.17   
   105. D(C   6,C   2,C   1,H  28)   -179.03 -0.000036    0.07   -178.96   
   106. D(H  26,C   2,C   1,H  28)      0.47 -0.000010    0.02      0.49   
   107. D(H  26,C   2,C   1,C   0)    179.66  0.000023   -0.04    179.62   
   108. D(O   5,C   3,C   0,H  27)      1.21 -0.000033    0.08      1.28   
   109. D(O   5,C   3,C   0,C   1)   -177.33 -0.000064    0.14   -177.19   
   110. D(C   4,C   3,C   0,H  27)    177.34  0.000067   -0.13    177.21   
   111. D(C   4,C   3,C   0,C   1)     -1.19  0.000036   -0.07     -1.26   
   112. D(C   6,C   4,C   3,O   5)    177.18  0.000088   -0.18    177.00   
   113. D(C   6,C   4,C   3,C   0)      1.02 -0.000018    0.03      1.04   
   114. D(C   9,C   4,C   3,O   5)     -3.25  0.000105   -0.23     -3.47   
   115. D(C   9,C   4,C   3,C   0)   -179.41 -0.000002   -0.02   -179.43   
   116. D(C  15,O   5,C   3,C   4)    144.97  0.000162   -0.22    144.75   
   117. D(C  15,O   5,C   3,C   0)    -38.75  0.000268   -0.43    -39.18   
   118. D(C   7,C   6,C   4,C   9)     -0.36 -0.000022    0.06     -0.31   
   119. D(C   7,C   6,C   4,C   3)    179.24 -0.000007    0.02    179.26   
   120. D(C   2,C   6,C   4,C   9)   -179.89 -0.000026    0.07   -179.82   
   121. D(C   2,C   6,C   4,C   3)     -0.29 -0.000011    0.03     -0.26   
   122. D(C   7,C   6,C   2,H  26)      0.66 -0.000007    0.01      0.67   
   123. D(C   7,C   6,C   2,C   1)   -179.83  0.000018   -0.04   -179.87   
   124. D(C   4,C   6,C   2,H  26)   -179.80 -0.000003    0.00   -179.80   
   125. D(C   4,C   6,C   2,C   1)     -0.29  0.000022   -0.05     -0.34   
   126. D(H  29,C   7,C   6,C   4)   -179.58  0.000018   -0.04   -179.63   
   127. D(H  29,C   7,C   6,C   2)     -0.05  0.000022   -0.05     -0.10   
   128. D(C   8,C   7,C   6,C   4)      0.49  0.000010   -0.03      0.47   
   129. D(C   8,C   7,C   6,C   2)   -179.97  0.000014   -0.04   -180.01   
   130. D(C  10,C   8,C   7,C   6)     -0.40  0.000009   -0.02     -0.42   
   131. D(H  30,C   8,C   7,H  29)     -0.36 -0.000011    0.02     -0.34   
   132. D(H  30,C   8,C   7,C   6)    179.56 -0.000003    0.01    179.57   
   133. D(C  10,C   8,C   7,H  29)    179.68  0.000001   -0.01    179.67   
   134. D(N  11,C   9,C   4,C   6)    179.94  0.000042   -0.10    179.84   
   135. D(N  11,C   9,C   4,C   3)      0.38  0.000026   -0.05      0.33   
   136. D(C  10,C   9,C   4,C   6)      0.14  0.000015   -0.04      0.10   
   137. D(C  10,C   9,C   4,C   3)   -179.42 -0.000001    0.01   -179.41   
   138. D(C  14,C  10,C   9,N  11)      0.08 -0.000024    0.05      0.14   
   139. D(C  14,C  10,C   9,C   4)    179.89  0.000002   -0.01    179.89   
   140. D(C   8,C  10,C   9,N  11)   -179.86 -0.000022    0.05   -179.81   
   141. D(C   8,C  10,C   9,C   4)     -0.05  0.000003   -0.01     -0.06   
   142. D(C  14,C  10,C   8,H  30)      0.27 -0.000002    0.01      0.28   
   143. D(C  14,C  10,C   8,C   7)   -179.76 -0.000015    0.04   -179.73   
   144. D(C   9,C  10,C   8,H  30)   -179.79 -0.000004    0.01   -179.77   
   145. D(C   9,C  10,C   8,C   7)      0.18 -0.000016    0.04      0.22   
   146. D(H  34,N  11,C   9,C  10)   -179.78  0.000025   -0.05   -179.83   
   147. D(H  34,N  11,C   9,C   4)      0.41 -0.000001    0.01      0.43   
   148. D(C  12,N  11,C   9,C  10)     -0.11  0.000027   -0.06     -0.16   
   149. D(C  12,N  11,C   9,C   4)   -179.91  0.000001   -0.00   -179.91   
   150. D(H  31,C  12,N  11,H  34)     -0.46 -0.000012    0.02     -0.44   
   151. D(H  31,C  12,N  11,C   9)    179.86 -0.000017    0.03    179.89   
   152. D(C  13,C  12,N  11,H  34)    179.69 -0.000008    0.01    179.70   
   153. D(C  13,C  12,N  11,C   9)      0.01 -0.000012    0.03      0.04   
   154. D(H  32,C  13,C  12,H  31)      0.06  0.000009   -0.02      0.05   
   155. D(H  32,C  13,C  12,N  11)    179.90  0.000004   -0.01    179.89   
   156. D(C  14,C  13,C  12,H  31)   -179.73 -0.000003    0.01   -179.72   
   157. D(C  14,C  13,C  12,N  11)      0.10 -0.000008    0.01      0.12   
   158. D(C  10,C  14,C  13,C  12)     -0.12  0.000011   -0.02     -0.14   
   159. D(H  33,C  14,C  10,C   9)   -179.63  0.000002   -0.00   -179.63   
   160. D(H  33,C  14,C  10,C   8)      0.31  0.000000   -0.00      0.31   
   161. D(C  13,C  14,C  10,C   9)      0.03  0.000005   -0.01      0.01   
   162. D(C  13,C  14,C  10,C   8)    179.96  0.000004   -0.01    179.95   
   163. D(H  33,C  14,C  13,H  32)     -0.27  0.000002   -0.01     -0.27   
   164. D(H  33,C  14,C  13,C  12)    179.52  0.000015   -0.03    179.49   
   165. D(C  10,C  14,C  13,H  32)   -179.91 -0.000002    0.00   -179.91   
   166. D(N  17,C  15,O   5,C   3)    155.49  0.000008   -0.00    155.49   
   167. D(O  16,C  15,O   5,C   3)    -26.88  0.000046   -0.04    -26.92   
   168. D(C  19,N  17,C  15,O  16)    178.50  0.000042   -0.05    178.45   
   169. D(C  19,N  17,C  15,O   5)     -4.13  0.000064   -0.09     -4.22   
   170. D(C  18,N  17,C  15,O  16)     -4.48  0.000033   -0.02     -4.50   
   171. D(C  18,N  17,C  15,O   5)    172.89  0.000055   -0.06    172.83   
   172. D(H  25,C  18,N  17,C  15)    121.15  0.000025   -0.06    121.09   
   173. D(H  24,C  18,N  17,C  19)     57.66 -0.000025   -0.02     57.63   
   174. D(H  24,C  18,N  17,C  15)   -119.63  0.000012   -0.05   -119.69   
   175. D(H  23,C  18,N  17,C  19)    178.04  0.000007   -0.03    178.01   
   176. D(H  23,C  18,N  17,C  15)      0.75  0.000044   -0.06      0.69   
   177. D(H  22,C  19,N  17,C  15)    108.10  0.000041   -0.14    107.97   
   178. D(H  21,C  19,N  17,C  18)     49.88  0.000064   -0.17     49.71   
   179. D(H  21,C  19,N  17,C  15)   -133.02  0.000059   -0.14   -133.16   
   180. D(H  20,C  19,N  17,C  18)    169.61  0.000033   -0.16    169.45   
   181. D(H  20,C  19,N  17,C  15)    -13.29  0.000028   -0.13    -13.42   
    ----------------------------------------------------------------------------

Geometry step timings:
Preparation and reading OPT file:      0.002 s ( 4.702 %)
Internal coordinates            :      0.000 s ( 0.058 %)
B/P matrices and projection     :      0.002 s ( 5.434 %)
Hessian update/contruction      :      0.027 s (64.977 %)
Making the step                 :      0.002 s ( 3.792 %)
Converting the step to Cartesian:      0.000 s ( 0.408 %)
Storing new data                :      0.003 s ( 7.520 %)
Checking convergence            :      0.000 s ( 0.041 %)
Final printing                  :      0.005 s (13.060 %)
Total time                      :      0.041 s

Time for energy+gradient        :    862.883 s
Time for complete geometry iter :    863.092 s

         *************************************************************
         *                GEOMETRY OPTIMIZATION CYCLE   3            *
         *************************************************************
---------------------------------
CARTESIAN COORDINATES (ANGSTROEM)
---------------------------------
  C     -3.077250   -0.647933   -0.043963
  C     -2.663212   -1.729225   -0.809987
  C     -1.338442   -1.811394   -1.177481
  C     -2.171908    0.358702    0.345091
  C     -0.796121    0.310040    0.001662
  O     -2.602505    1.364594    1.138469
  C     -0.393154   -0.812948   -0.783231
  C      0.939068   -0.946773   -1.188034
  C      1.875057    0.000623   -0.823528
  C      0.189546    1.277913    0.363047
  C      1.526125    1.131079   -0.045676
  N     -0.119425    2.398365    1.120270
  C      0.821283    3.335887    1.471454
  C      2.123847    3.200366    1.080964
  C      2.506923    2.094817    0.311414
  C     -3.891554    1.928392    0.942945
  O     -4.413902    1.900510   -0.150240
  N     -4.336898    2.483791    2.066715
  C     -5.576005    3.255589    2.031363
  C     -3.651988    2.442339    3.357056
  H     -2.854216    1.709632    3.348181
  H     -4.377446    2.169689    4.123760
  H     -3.243258    3.426952    3.592098
  H     -5.982214    3.250620    1.025957
  H     -5.371382    4.282000    2.340513
  H     -6.296674    2.814780    2.721449
  H     -0.978237   -2.642329   -1.768735
  H     -4.101849   -0.576614    0.287295
  H     -3.369697   -2.494534   -1.096265
  H      1.228567   -1.799079   -1.787132
  H      2.905763   -0.112051   -1.133886
  H      0.453903    4.161627    2.060252
  H      2.839926    3.955441    1.371443
  H      3.525478    1.961560   -0.020442
  H     -1.067076    2.528353    1.429014

----------------------------
CARTESIAN COORDINATES (A.U.)
----------------------------
  NO LB      ZA    FRAG     MASS         X           Y           Z
   0 C     6.0000    0    12.011   -5.815160   -1.224416   -0.083078
   1 C     6.0000    0    12.011   -5.032742   -3.267761   -1.530654
   2 C     6.0000    0    12.011   -2.529289   -3.423039   -2.225117
   3 C     6.0000    0    12.011   -4.104311    0.677849    0.652128
   4 C     6.0000    0    12.011   -1.504451    0.585891    0.003141
   5 O     8.0000    0    15.999   -4.918022    2.578709    2.151394
   6 C     6.0000    0    12.011   -0.742953   -1.536250   -1.480093
   7 C     6.0000    0    12.011    1.774581   -1.789141   -2.245060
   8 C     6.0000    0    12.011    3.543344    0.001178   -1.556243
   9 C     6.0000    0    12.011    0.358190    2.414906    0.686059
  10 C     6.0000    0    12.011    2.883958    2.137429   -0.086316
  11 N     7.0000    0    14.007   -0.225681    4.532253    2.117003
  12 C     6.0000    0    12.011    1.551999    6.303913    2.780645
  13 C     6.0000    0    12.011    4.013489    6.047815    2.042726
  14 C     6.0000    0    12.011    4.737399    3.958630    0.588487
  15 C     6.0000    0    12.011   -7.353971    3.644132    1.781908
  16 O     8.0000    0    15.999   -8.341066    3.591443   -0.283913
  17 N     7.0000    0    14.007   -8.195550    4.693685    3.905526
  18 C     6.0000    0    12.011  -10.537123    6.152171    3.838721
  19 C     6.0000    0    12.011   -6.901256    4.615351    6.343916
  20 H     1.0000    0     1.008   -5.393686    3.230737    6.327146
  21 H     1.0000    0     1.008   -8.272174    4.100119    7.792777
  22 H     1.0000    0     1.008   -6.128870    6.476000    6.788082
  23 H     1.0000    0     1.008  -11.304747    6.142782    1.938777
  24 H     1.0000    0     1.008  -10.150442    8.091807    4.422928
  25 H     1.0000    0     1.008  -11.898989    5.319163    5.142794
  26 H     1.0000    0     1.008   -1.848600   -4.993278   -3.342425
  27 H     1.0000    0     1.008   -7.751372   -1.089642    0.542909
  28 H     1.0000    0     1.008   -6.367805   -4.713987   -2.071641
  29 H     1.0000    0     1.008    2.321654   -3.399766   -3.377189
  30 H     1.0000    0     1.008    5.491097   -0.211746   -2.142735
  31 H     1.0000    0     1.008    0.857752    7.864336    3.893312
  32 H     1.0000    0     1.008    5.366682    7.474700    2.591653
  33 H     1.0000    0     1.008    6.662187    3.706812   -0.038630
  34 H     1.0000    0     1.008   -2.016481    4.777895    2.700445

--------------------------------
INTERNAL COORDINATES (ANGSTROEM)
--------------------------------
 C      0   0   0     0.000000000000     0.00000000     0.00000000
 C      1   0   0     1.388312369430     0.00000000     0.00000000
 C      2   1   0     1.377250638597   118.72220570     0.00000000
 C      1   2   3     1.408659848428   121.15072086     0.61038266
 C      4   1   2     1.418837624254   122.12962622   358.73590072
 O      4   1   2     1.351547253969   119.28876540   182.81267103
 C      5   4   1     1.428126085389   115.69638245     1.04337089
 C      7   5   4     1.398781396509   120.20005780   179.25816158
 C      8   7   5     1.380760375426   120.23719438     0.46572925
 C      5   4   1     1.427906368116   125.79144306   180.57017806
 C     10   5   4     1.405367299205   120.80219121   180.58855297
 N     10   5   4     1.387178068840   122.13372231     0.32659229
 C     12  10   5     1.373757229586   122.56486698   180.08909947
 C     13  12  10     1.366573111284   120.79521667     0.03912482
 C     14  13  12     1.400426217606   119.73819207     0.11764978
 C      6   4   1     1.420472760652   120.24631295   320.82067670
 O     16   6   4     1.211890798376   120.40926855   333.07839765
 N     16   6   4     1.330285692486   110.68513343   155.48793351
 C     18  16   6     1.460242400203   118.96614894   172.82660185
 C     18  16   6     1.461437488241   125.24848133   355.78284848
 H     20  18  16     1.083225242318   110.92262251   346.57758883
 H     20  18  16     1.090166100444   108.43192359   226.83689269
 H     20  18  16     1.091681133098   109.87569316   107.96522616
 H     19  18  16     1.084376912448   109.74883321     0.69173227
 H     19  18  16     1.091312935012   109.33815073   240.31471940
 H     19  18  16     1.090822693561   109.37280154   121.09179230
 H      3   2   1     1.081564644872   120.80077467   179.61626366
 H      1   2   3     1.079176883669   120.26416919   182.16599364
 H      2   1   3     1.080173737996   120.19862743   179.13672511
 H      8   7   5     1.081273373963   119.39032238   180.37352761
 H      9   8   7     1.082300041476   119.89631588   179.56731676
 H     13  12  10     1.078655685481   115.38836683   179.89445322
 H     14  13  12     1.080410143563   119.05231217   179.88952216
 H     15  14  13     1.079508502333   121.63285581   179.49244267
 H     12  10   5     1.005117811467   118.82497710     0.42509693

---------------------------
INTERNAL COORDINATES (A.U.)
---------------------------
 C      0   0   0     0.000000000000     0.00000000     0.00000000
 C      1   0   0     2.623530166558     0.00000000     0.00000000
 C      2   1   0     2.602626524717   118.72220570     0.00000000
 C      1   2   3     2.661981329380   121.15072086     0.61038266
 C      4   1   2     2.681214538343   122.12962622   358.73590072
 O      4   1   2     2.554054167055   119.28876540   182.81267103
 C      5   4   1     2.698767186094   115.69638245     1.04337089
 C      7   5   4     2.643313760626   120.20005780   179.25816158
 C      8   7   5     2.609258966126   120.23719438     0.46572925
 C      5   4   1     2.698351980621   125.79144306   180.57017806
 C     10   5   4     2.655759313065   120.80219121   180.58855297
 N     10   5   4     2.621386649089   122.13372231     0.32659229
 C     12  10   5     2.596024938412   122.56486698   180.08909947
 C     13  12  10     2.582448922307   120.79521667     0.03912482
 C     14  13  12     2.646422022038   119.73819207     0.11764978
 C      6   4   1     2.684304498327   120.24631295   320.82067670
 O     16   6   4     2.290141713150   120.40926855   333.07839765
 N     16   6   4     2.513875638672   110.68513343   155.48793351
 C     18  16   6     2.759458225524   118.96614894   172.82660185
 C     18  16   6     2.761716614622   125.24848133   355.78284848
 H     20  18  16     2.046999049332   110.92262251   346.57758883
 H     20  18  16     2.060115370323   108.43192359   226.83689269
 H     20  18  16     2.062978367124   109.87569316   107.96522616
 H     19  18  16     2.049175390475   109.74883321     0.69173227
 H     19  18  16     2.062282573578   109.33815073   240.31471940
 H     19  18  16     2.061356151497   109.37280154   121.09179230
 H      3   2   1     2.043860974940   120.80077467   179.61626366
 H      1   2   3     2.039348760193   120.26416919   182.16599364
 H      2   1   3     2.041232541866   120.19862743   179.13672511
 H      8   7   5     2.043310552690   119.39032238   180.37352761
 H      9   8   7     2.045250673122   119.89631588   179.56731676
 H     13  12  10     2.038363838357   115.38836683   179.89445322
 H     14  13  12     2.041679283645   119.05231217   179.88952216
 H     15  14  13     2.039975428650   121.63285581   179.49244267
 H     12  10   5     1.899397395999   118.82497710     0.42509693

------------------------------------------------------------------------------
                   ___                                                        
                  /   \      - P O W E R E D   B Y -                         
                 /     \                                                     
                 |  |  |   _    _      __       _____    __    __             
                 |  |  |  | |  | |    /  \     |  _  \  |  |  /  |          
                  \  \/   | |  | |   /    \    | | | |  |  | /  /          
                 / \  \   | |__| |  /  /\  \   | |_| |  |  |/  /          
                |  |  |   |  __  | /  /__\  \  |    /   |      \           
                |  |  |   | |  | | |   __   |  |    \   |  |\   \          
                \     /   | |  | | |  |  |  |  | |\  \  |  | \   \       
                 \___/    |_|  |_| |__|  |__|  |_| \__\ |__|  \__/        
                                                                              
                      - O R C A' S   B I G   F R I E N D -                    
                                      &                                       
                       - I N T E G R A L  F E E D E R -                       
                                                                              
 v1 FN, 2020, v2 2021, v3 2022-2024                                           
------------------------------------------------------------------------------


----------------------
SHARK INTEGRAL PACKAGE
----------------------

Number of atoms                             ...     35
Number of basis functions                   ...    570
Number of shells                            ...    260
Maximum angular momentum                    ...      2
Integral batch strategy                     ... SHARK/LIBINT Hybrid
RI-J (if used) integral strategy            ... SPLIT-RIJ (Revised 2003 algorithm where possible)
Printlevel                                  ...      1
Contraction scheme used                     ... SEGMENTED contraction
Prescreening option                         ... SCHWARTZ
   Thresh                                   ... 2.500e-11
   Tcut                                     ... 2.500e-12
   Tpresel                                  ... 2.500e-12 
Coulomb Range Separation                    ... NOT USED
Exchange Range Separation                   ... NOT USED
Multipole approximations                    ... NOT USED
Finite Nucleus Model                        ... NOT USED
CABS basis                                  ... NOT available
Auxiliary Coulomb fitting basis             ... AVAILABLE
   # of basis functions in Aux-J            ...   1145
   # of shells in Aux-J                     ...    375
   Maximum angular momentum in Aux-J        ...      4
Auxiliary J/K fitting basis                 ... NOT available
Auxiliary Correlation fitting basis         ... AVAILABLE
   # of basis functions in Aux-C            ...   1745
   # of shells in Aux-C                     ...    545
   Maximum angular momentum in Aux-C        ...      4
Auxiliary 'external' fitting basis          ... NOT available

Checking pre-screening integrals            ... done (  0.0 sec) Dimension = 260
Check shell pair data                       ... done (  0.0 sec)
Shell pair information
Shell pair cut-off parameter TPreSel        ...   2.5e-12
Total number of shell pairs                 ...     33930
Shell pairs after pre-screening             ...     25279
Total number of primitive shell pairs       ...    111170
Primitive shell pairs kept                  ...     54995
          la=0 lb=0:   7468 shell pairs
          la=1 lb=0:   8325 shell pairs
          la=1 lb=1:   2326 shell pairs
          la=2 lb=0:   4200 shell pairs
          la=2 lb=1:   2345 shell pairs
          la=2 lb=2:    615 shell pairs

Calculating one electron integrals          ... done (  0.1 sec)
Calculating RI/J V-Matrix + Cholesky decomp.... done (  0.2 sec)
Calculating RI/C V-Matrix + Cholesky decomp.... done (  0.5 sec)
Calculating Nuclear repulsion               ... done (  0.0 sec) ENN=   1506.912050851262 Eh

Diagonalization of the overlap matrix:
Smallest eigenvalue                        ... 3.482e-06
Time for diagonalization                   ...    0.029 sec
Threshold for overlap eigenvalues          ... 1.000e-07
Number of eigenvalues below threshold      ... 0
Time for construction of square roots      ...    0.040 sec
Total time needed                          ...    0.079 sec

-------------------
DFT GRID GENERATION
-------------------

General Integration Accuracy     IntAcc      ... 4.388
Radial Grid Type                 RadialGrid  ... OptM3 with GC (2021)
Angular Grid (max. ang.)         AngularGrid ... 4 (Lebedev-302)
Angular grid pruning method      GridPruning ... 4 (adaptive)
Weight generation scheme         WeightScheme... mBecke (2022)
Basis function cutoff            BFCut       ... 1.0000e-11
Integration weight cutoff        WCut        ... 1.0000e-14
Partially contracted basis set               ... off
Rotationally invariant grid construction     ... off
Angular grids for H and He will be reduced by one unit

Total number of grid points                  ...   167565
Total number of batches                      ...     2638
Average number of points per batch           ...       63
Average number of grid points per atom       ...     4788

--------------------
COSX GRID GENERATION
--------------------

GRIDX 1
-------
General Integration Accuracy     IntAcc      ... 3.816
Radial Grid Type                 RadialGrid  ... OptM3 with GC (2021)
Angular Grid (max. ang.)         AngularGrid ... 1 (Lebedev-50)
Angular grid pruning method      GridPruning ... 4 (adaptive)
Weight generation scheme         WeightScheme... mBecke (2022)
Basis function cutoff            BFCut       ... 1.0000e-11
Integration weight cutoff        WCut        ... 1.0000e-14
Partially contracted basis set               ... on
Rotationally invariant grid construction     ... off
Angular grids for H and He will be reduced by one unit

Total number of grid points                  ...    21320
Total number of batches                      ...      185
Average number of points per batch           ...      115
Average number of grid points per atom       ...      609
UseSFitting                                  ... on

GRIDX 2
-------
General Integration Accuracy     IntAcc      ... 4.020
Radial Grid Type                 RadialGrid  ... OptM3 with GC (2021)
Angular Grid (max. ang.)         AngularGrid ... 2 (Lebedev-110)
Angular grid pruning method      GridPruning ... 4 (adaptive)
Weight generation scheme         WeightScheme... mBecke (2022)
Basis function cutoff            BFCut       ... 1.0000e-11
Integration weight cutoff        WCut        ... 1.0000e-14
Partially contracted basis set               ... on
Rotationally invariant grid construction     ... off
Angular grids for H and He will be reduced by one unit

Total number of grid points                  ...    46382
Total number of batches                      ...      377
Average number of points per batch           ...      123
Average number of grid points per atom       ...     1325
UseSFitting                                  ... on

GRIDX 3
-------
General Integration Accuracy     IntAcc      ... 4.338
Radial Grid Type                 RadialGrid  ... OptM3 with GC (2021)
Angular Grid (max. ang.)         AngularGrid ... 3 (Lebedev-194)
Angular grid pruning method      GridPruning ... 4 (adaptive)
Weight generation scheme         WeightScheme... mBecke (2022)
Basis function cutoff            BFCut       ... 1.0000e-11
Integration weight cutoff        WCut        ... 1.0000e-14
Partially contracted basis set               ... on
Rotationally invariant grid construction     ... off
Angular grids for H and He will be reduced by one unit

Total number of grid points                  ...   101605
Total number of batches                      ...      810
Average number of points per batch           ...      125
Average number of grid points per atom       ...     2903
UseSFitting                                  ... on
Initializing property integral containers    ... done (  0.0 sec)

SHARK setup successfully completed in   6.7 seconds

Maximum memory used throughout the entire STARTUP-calculation: 107.5 MB
Occupation numbers will be reassigned to an Aufbau configuration
             **** ENERGY FILE WAS UPDATED (HBQ-H.en.tmp) ****
Finished Guess after   0.8 sec
Maximum memory used throughout the entire GUESS-calculation: 68.9 MB
--------------------
CPCM SOLVATION MODEL
--------------------
CPCM parameters:
  Epsilon                                         ...      80.1510
  Refrac                                          ...       1.3328
  Rsolv                                           ...       1.3000
  Surface type                                    ... GAUSSIAN VDW
  Discretization scheme                           ... Constant charge density
    Threshold for H atoms                         ...       5.0000 (charges/Ang^2)
    Threshold for non-H atoms                     ...       5.0000 (charges/Ang^2)
  Epsilon function type                           ...         CPCM
Solvent:                                          ... WATER
Radii:
  Scheme                                          ... Element-dependent radii
  Radius for C  used is    3.8550 Bohr (=   2.0400 Ang.)
  Radius for O  used is    3.4469 Bohr (=   1.8240 Ang.)
  Radius for N  used is    3.5149 Bohr (=   1.8600 Ang.)
  Radius for H  used is    2.4944 Bohr (=   1.3200 Ang.)
Calculating surface                               ...        done! (  0.0s)
Cavity surface points                             ...         3048
Cavity Volume                                     ...    2130.2882
Cavity Surface-area                               ...    1085.9668
Calculating surface distance matrix               ...        done! (  0.0s)
Performing Cholesky decomposition & store         ...        done! (  0.9s)
Overall time for CPCM initialization              ...                 0.9s

----------------------------------------D-I-I-S--------------------------------------------
Iteration    Energy (Eh)           Delta-E    RMSDP     MaxDP     DIISErr   Damp  Time(sec)
-------------------------------------------------------------------------------------------
               ***  Starting incremental Fock matrix formation  ***
    1    -878.3701902609589069     0.00e+00  2.19e-05  1.42e-03  3.39e-03  0.700  37.0
                              *** Initializing SOSCF ***
---------------------------------------S-O-S-C-F--------------------------------------
Iteration    Energy (Eh)           Delta-E    RMSDP     MaxDP     MaxGrad    Time(sec)
--------------------------------------------------------------------------------------
    2    -878.3702155932312508    -2.53e-05  6.50e-05  3.79e-03  2.65e-03    13.8
               *** Restarting incremental Fock matrix formation ***
    3    -878.3702847418483088    -6.91e-05  1.25e-05  6.41e-04  1.36e-04    36.6
    4    -878.3702866257806363    -1.88e-06  9.66e-06  1.10e-03  3.09e-05    21.3
    5    -878.3702865643087989     6.15e-08  6.48e-06  7.27e-04  5.58e-05    19.1
    6    -878.3702867111521755    -1.47e-07  2.94e-06  1.49e-04  4.08e-06    17.6
    7    -878.3702867009076272     1.02e-08  1.54e-06  1.30e-04  5.76e-06    16.1
    8    -878.3702867277622772    -2.69e-08  1.31e-05  1.26e-03  1.10e-06    14.8
                  *** Gradient check signals convergence ***

               *****************************************************
               *                     SUCCESS                       *
               *           SCF CONVERGED AFTER   8 CYCLES          *
               *****************************************************

Recomputing exchange energy using gridx3       ... done (   57.733 sec)
Old exchange energy                            :    -23.567419027 Eh
New exchange energy                            :    -23.567398578 Eh
Exchange energy change after final integration :      0.000020449 Eh
Total energy after final integration           :   -878.370266279 Eh
             **** ENERGY FILE WAS UPDATED (HBQ-H.en.tmp) ****

----------------
TOTAL SCF ENERGY
----------------

Total Energy       :       -878.37026627884609 Eh          -23901.67008 eV

Components:
Nuclear Repulsion  :       1506.91205085126171 Eh           41005.16157 eV
Electronic Energy  :      -2385.19530818891508 Eh          -64904.46402 eV
One Electron Energy:      -4165.48620053236391 Eh         -113348.64205 eV
Two Electron Energy:       1780.29089234344883 Eh           48444.17804 eV
CPCM Dielectric    :         -0.08702939010870 Eh              -2.36819 eV

Virial components:
Potential Energy   :      -1752.80930102701177 Eh          -47696.36592 eV
Kinetic Energy     :        874.43903474816580 Eh           23794.69583 eV
Virial Ratio       :          2.00449571825417

DFT components:
N(Alpha)           :       69.999986678501 electrons
N(Beta)            :       69.999986678501 electrons
N(Total)           :      139.999973357002 electrons
E(X)               :      -93.697363792086 Eh       
E(C)               :       -5.639031103301 Eh       
E(XC)              :      -99.336394895387 Eh       

CPCM Solvation Model Properties:
Surface-charge          :         -1.02879952862276
Corrected charge        :         -1.00000000000000
Outlying charge corr.   :          0.00004609236119 Eh               0.00125 eV
Free-energy (cav+disp)  :  This term is not implemented in the current solvation scheme

---------------
SCF CONVERGENCE
---------------

  Last Energy change         ...    2.6855e-08  Tolerance :   1.0000e-08
  Last MAX-Density change    ...    1.2576e-03  Tolerance :   1.0000e-07
  Last RMS-Density change    ...    1.3122e-05  Tolerance :   5.0000e-09
  Last DIIS Error            ...    2.6477e-03  Tolerance :   5.0000e-07
  Last Orbital Gradient      ...    1.0988e-06  Tolerance :   1.0000e-05
  Last Orbital Rotation      ...    4.1384e-06  Tolerance :   1.0000e-05


Total SCF time: 0 days 0 hours 3 min 56 sec 
Finished LeanSCF after 236.4 sec

Maximum memory used throughout the entire LEANSCF-calculation: 130.3 MB

------------------------------------------------------------------------------
                         ORCA PROPERTY INTEGRAL CALCULATIONS
------------------------------------------------------------------------------

GBWName                                   ... HBQ-H.gbw
Number of atoms                           ...     35
Number of basis functions                 ...    570
Max core memory                           ...   1024 MB

Dipole integrals                          ... YES
Quadrupole integrals                      ...  NO
Linear momentum integrals                 ... YES
Angular momentum integrals                ... YES
Higher moments length integrals           ...  NO
Higher moments velocity integrals         ...  NO
Kinetic energy integrals                  ...  NO
GIAO right hand sides                     ...  NO
GIAO dipole derivative integrals          ...  NO
SOC integrals                             ...  NO
EPR diamagnetic integrals (GIAO)          ...  NO
EPR gauge integrals                       ...  NO
Field gradient integrals                  ...  NO (   0 nuclei)
Spin-dipole/Fermi contact integrals       ...  NO (   0 nuclei)
Contact density integrals                 ...  NO (   0 nuclei)
Nucleus-orbit integrals                   ...  NO (   0 nuclei)
Geometric perturbations                   ...  NO (  35 nuclei)

Choice of electric origin   ... Center of mass
Position of electric origin ... ( -2.5780,  2.1508,  0.9723) 
Choice of magnetic origin   ... GIAO
Position of magnetic origin ... (  0.0000,  0.0000,  0.0000) 

Calculating integrals                     ... Electric Dipole (Length)     done (  0.3 sec)
Calculating integrals                     ... Linear Momentum              done (  0.1 sec)
Calculating integrals                     ... Angular Momentum  (ElOri)    done (  0.2 sec)

Property integrals calculated in   0.6 sec

Maximum memory used throughout the entire PROPINT-calculation: 71.3 MB
------------------------------------------------------------------------------
                        ORCA TD-DFT/TDA CALCULATION
------------------------------------------------------------------------------

Input orbitals are from        ... HBQ-H.gbw
CI-vector output               ... HBQ-H.cis
Solver                         ... FN-2001
Tamm-Dancoff approximation     ... operative
CIS-Integral strategy          ... AO-integrals
Integral handling              ... AO integral Direct
Max. core memory used          ... 512 MB
Reference state                ... RHF
Generation of triplets         ... off
Follow IRoot                   ... off
Number of operators            ... 1
Orbital ranges used for CIS calculation:
 Operator 0:  Orbitals  20... 69  to  70...569
XAS localization array:
 Operator 0:  Orbitals  -1... -1

-------------------
XC-INTEGRATION GRID
-------------------

General Integration Accuracy     IntAcc      ... 3.467
Radial Grid Type                 RadialGrid  ... OptM3 with GC (2021)
Angular Grid (max. ang.)         AngularGrid ... 1 (Lebedev-50)
Angular grid pruning method      GridPruning ... 4 (adaptive)
Weight generation scheme         WeightScheme... mBecke (2022)
Basis function cutoff            BFCut       ... 1.0000e-11
Integration weight cutoff        WCut        ... 1.0000e-14
Partially contracted basis set               ... off
Rotationally invariant grid construction     ... off
Angular grids for H and He will be reduced by one unit

Total number of grid points                  ...    24524
Total number of batches                      ...      400
Average number of points per batch           ...       61
Average number of grid points per atom       ...      701

---------------------
COSX-INTEGRATION GRID
---------------------

General Integration Accuracy     IntAcc      ... 3.067
Radial Grid Type                 RadialGrid  ... OptM3 with GC (2021)
Angular Grid (max. ang.)         AngularGrid ... 1 (Lebedev-50)
Angular grid pruning method      GridPruning ... 4 (adaptive)
Weight generation scheme         WeightScheme... mBecke (2022)
Basis function cutoff            BFCut       ... 1.0000e-11
Integration weight cutoff        WCut        ... 1.0000e-14
Partially contracted basis set               ... on
Rotationally invariant grid construction     ... off
Angular grids for H and He will be reduced by one unit

Total number of grid points                  ...    11334
Total number of batches                      ...      112
Average number of points per batch           ...      101
Average number of grid points per atom       ...      324

---------------
TD-DFT XC SETUP
---------------

DFT calculation                         ... on
Name of the grid file                   ... HBQ-H.grid_cis.tmp
RI-approximation                        ... on
Aux-basis dimension                     ... 1745
Exchange functional (TD-DFT)            ... B88
   X-Alpha parameter    XAlpha (TD-DFT) ...  0.666667
   Becke's b parameter  XBeta (TD-DFT)  ...  0.004200
Correlation functional (TD-DFT)         ... LYP
 LDA part of GGA corr.  LDAOpt (TD-DFT) ... VWN-5
Hybrid DFT                              ... on
   Exchange mixing (TD-DFT)             ...  0.200
   GGA exch. scaling (TD-DFT)           ...  0.720
   GGA corr. scaling (TD-DFT)           ...  0.810

Building densities             ... done
Calculating rho(r) on the grid ... done
Building xc-kernel on the grid ... done
                    *** TD-DFT CALCULATION INITIALIZED ***

-----------------------------
    LR-CPCM (equilibrium)
-----------------------------

Setting up LR-CPCM             ... done

------------------------
DAVIDSON-DIAGONALIZATION
------------------------

Dimension of the eigenvalue problem            ...  25000
Number of roots to be determined               ...      1
Maximum size of the expansion space            ...     10
Maximum number of iterations                   ...    100
Convergence tolerance for the residual         ...    2.500e-07
Convergence tolerance for the energies         ...    2.500e-07
Orthogonality tolerance                        ...    1.000e-14
Level Shift                                    ...    0.000e+00
Constructing the preconditioner                ... o.k.
Building the initial guess                     ... o.k.
Number of trial vectors determined             ...     10


                       ****Iteration    0****
   Time for iteration     :  TOTAL=22.2 TRAFO=0.1 RIJ=3.5 COSX=8.2 XC=2.1
   Size of expansion space: 3
   Lowest Energy          :     0.117739995874
   Maximum Energy change  :     0.117739995874 (vector 0)
   Maximum residual norm  :     0.010485851833

                       ****Iteration    1****
   Time for iteration     :  TOTAL=16.5 TRAFO=0.0 RIJ=2.6 COSX=6.9 XC=0.5
   Size of expansion space: 4
   Lowest Energy          :     0.107120778064
   Maximum Energy change  :     0.010619217810 (vector 0)
   Maximum residual norm  :     0.000215904747

                       ****Iteration    2****
   Time for iteration     :  TOTAL=16.7 TRAFO=0.0 RIJ=2.6 COSX=7.1 XC=0.5
   Size of expansion space: 5
   Lowest Energy          :     0.106862960521
   Maximum Energy change  :     0.000257817542 (vector 0)
   Maximum residual norm  :     0.000034378557

                       ****Iteration    3****
   Time for iteration     :  TOTAL=16.4 TRAFO=0.0 RIJ=2.5 COSX=6.9 XC=0.5
   Size of expansion space: 6
   Lowest Energy          :     0.106804629677
   Maximum Energy change  :     0.000058330844 (vector 0)
   Maximum residual norm  :     0.000004794282

                       ****Iteration    4****
   Time for iteration     :  TOTAL=17.0 TRAFO=0.2 RIJ=2.5 COSX=7.1 XC=0.5
   Size of expansion space: 7
   Lowest Energy          :     0.106799423973
   Maximum Energy change  :     0.000005205704 (vector 0)
   Maximum residual norm  :     0.000000691084

                       ****Iteration    5****
   Time for iteration     :  TOTAL=16.9 TRAFO=0.0 RIJ=2.7 COSX=7.2 XC=0.5
   Size of expansion space: 8
   Lowest Energy          :     0.106798644297
   Maximum Energy change  :     0.000000779677 (vector 0)
   Maximum residual norm  :     0.000000052248

      *** CONVERGENCE OF RESIDUAL NORM REACHED ***

Storing the converged CI vectors               ... HBQ-H.cis1

                 *** DAVIDSON DONE ***

Total time for solving the CIS problem:   106.655sec

------------------------------------
TD-DFT/TDA EXCITED STATES (SINGLETS)
------------------------------------

the weight of the individual excitations are printed if larger than 1.0e-02

STATE  1:  E=   0.106799 au      2.906 eV    23439.6 cm**-1 <S**2> =   0.000000 Mult 1
    67a ->  71a  :     0.013866 (c= -0.11775186)
    69a ->  70a  :     0.966259 (c= -0.98298484)


-----------------------------
TD-DFT/TDA-EXCITATION SPECTRA
-----------------------------

Center of mass = ( -2.5780,  2.1508,  0.9723)
Generating CIS transition densities           ... done

----------------------------------------------------------------------------------------------------
                     ABSORPTION SPECTRUM VIA TRANSITION ELECTRIC DIPOLE MOMENTS    
----------------------------------------------------------------------------------------------------
     Transition      Energy     Energy  Wavelength fosc(D2)      D2        DX        DY        DZ   
                      (eV)      (cm-1)    (nm)                 (au**2)    (au)      (au)      (au)  
----------------------------------------------------------------------------------------------------
  0-1A  ->  1-1A    2.906139   23439.6   426.6   0.255070328   3.58249  -1.66224  -0.89009  -0.16488

----------------------------------------------------------------------------------------------------
                     ABSORPTION SPECTRUM VIA TRANSITION VELOCITY DIPOLE MOMENTS    
----------------------------------------------------------------------------------------------------
     Transition      Energy     Energy  Wavelength fosc(P2)      P2        PX        PY        PZ   
                      (eV)      (cm-1)    (nm)                 (au**2)    (au)      (au)      (au)  
----------------------------------------------------------------------------------------------------
  0-1A  ->  1-1A    2.906139   23439.6   426.6   0.060629351   0.00971   0.08758   0.04317   0.01339

------------------------------------------------------------------------------------------
                     CD SPECTRUM VIA TRANSITION ELECTRIC DIPOLE MOMENTS    
------------------------------------------------------------------------------------------
     Transition      Energy     Energy  Wavelength    R        MX        MY        MZ   
                      (eV)      (cm-1)    (nm)   (1e40*cgs)   (au)      (au)      (au)  
------------------------------------------------------------------------------------------
  0-1A  ->  1-1A    2.906139   23439.6   426.6    1.21997   0.07017  -0.18829   0.32471

------------------------------------------------------------------------------------------
                     CD SPECTRUM VIA TRANSITION VELOCITY DIPOLE MOMENTS    
------------------------------------------------------------------------------------------
     Transition      Energy     Energy  Wavelength    R        MX        MY        MZ   
                      (eV)      (cm-1)    (nm)   (1e40*cgs)   (au)      (au)      (au)  
------------------------------------------------------------------------------------------
  0-1A  ->  1-1A    2.906139   23439.6   426.6   10.43401   0.07017  -0.18829   0.32471

Total run time:      107.841 sec

           *** ORCA-CIS/TD-DFT FINISHED WITHOUT ERROR ***
-----------------------
CIS/TD-DFT TOTAL ENERGY
-----------------------

    E(SCF)  =   -878.370266279 Eh
    DE(CIS) =      0.106798644 Eh (Root  1)
    ----------------------------- ---------
    E(tot)  =   -878.263467635 Eh


------------------------
TD-DFT GRADIENT XC SETUP
------------------------

Building densities                     ... done
Calculating rho(r) on the grid         ... done
Building xc-kernel on the grid         ... done
Building xc 3rd derivative on the grid ... done
                *** TD-DFT GRADIENT CALCULATION INITIALIZED ***

--------------------------
TD-DFT/TDA RELAXED DENSITY
--------------------------

Reference wavefunction             ... RHF
State of interest                  ... 1
Basis dimension                    ... 570
DFT-XC contribution needed         ... YES
RI-approximation                   ... YES
Do Coulomb                         ... YES
Do Exchange                        ... YES
Need Hartree-Fock Exchange         ... YES
facj, facx                         ...  2.000, -0.200
Conventional                       ... NO
Range separation                   ... NO
Triplet state                      ... NO
Spin Flip                          ... NO
CIS-vectors being read from        ... HBQ-H.cis
 => Number of Vectors found: 1
 => Orbital Window: 20...69 -> 70...569

Reading the CIS file                     ... done
Norm of the CI vector                    ... 1.000000000
Reading the CPCM file                    ... done
Making the CIS (pseudo)densities         ... done
Making operators G(D) and Q(T)           ... (SHARK-ok)done
Transforming the Fock operators          ... done
Making the frozen-core relaxed density   ... done
Constructing the G(H) operator           ... (SHARK-ok)done
Transforming the G(H) operator           ... done
Calculating the CIS Lagrangian           ... done
Solving the Z-vector equations           ... 

Using XC Grid                  ... (HBQ-H.grid_cpscf.tmp) 
Recalculating density on grid  ... (HBQ-H.grho_cpscf0.tmp) done
Calculating the xc-kernel      ... (HBQ-H.fxc_cpscf0.tmp) done

-------------------
SHARK CP-SCF DRIVER
-------------------

Dimension of the orbital basis          ...    570
Dimension of the CPSCF-problem          ...  35000
Number of operators                     ...      1
Max. number of iterations               ...    128
Convergence Tolerance                   ... 1.0e-04
Number of perturbations                 ...      1
Perturbation type                       ... REAL

----------------------------
POPLE LINEAR EQUATION SOLVER
----------------------------

  ITERATION   0:   ||err||_max =   1.6811e+00 (  16.5 sec)
  ITERATION   1:   ||err||_max =   8.9780e-02 (  16.6 sec)
  ITERATION   2:   ||err||_max =   1.8962e-02 (  16.4 sec)
  ITERATION   3:   ||err||_max =   6.3965e-03 (  16.9 sec)
  ITERATION   4:   ||err||_max =   2.3774e-03 (  17.5 sec)
  ITERATION   5:   ||err||_max =   1.0480e-03 (  16.9 sec)
  ITERATION   6:   ||err||_max =   3.0974e-04 (  18.7 sec)
  ITERATION   7:   ||err||_max =   1.3339e-04 (  18.0 sec)
  ITERATION   8:   ||err||_max =   3.4627e-05 (  16.8 sec)

Finalizing the relaxed density           ... done
Storing the relaxed density              ... done
Constructing the G(Z) operator           ... (SHARK-ok)done
Adding the CPCM contribution             ... done
Adding the XC terms                      ... done
Transforming the G(Z) operator           ... done
Making the W-matrix                      ... done
Finalizing the W-matrix                  ... done
Transforming the W-matrix                ... done
Nuc. rep. gradient        (SHARK) ... done (  0.0 sec)
HCore & Overlap gradient  (SHARK) ... done (  2.0 sec)
Split-RIJ-J gradient      (SHARK) ... done ( 11.7 sec)
COSX-gradient                     ... done (113.2 sec)
CPCM gradient                     ... done (  9.6 sec)
Dispersion correction             ... done (  0.0 sec)

-------------------
DISPERSION GRADIENT
-------------------

   1   C   :   -0.000564205   -0.000588070   -0.000116403
   2   C   :   -0.000487587   -0.000673296   -0.000243477
   3   C   :   -0.000233860   -0.000731718   -0.000382539
   4   C   :   -0.000442636   -0.000283559   -0.000053897
   5   C   :   -0.000007682   -0.000218884   -0.000070286
   6   O   :   -0.000239173    0.000059428    0.000096247
   7   C   :    0.000138023   -0.000568988   -0.000368445
   8   C   :    0.000577341   -0.000527676   -0.000460851
   9   C   :    0.000702956   -0.000378274   -0.000397503
  10   C   :    0.000262536    0.000258757    0.000109803
  11   C   :    0.000659760    0.000043969   -0.000127269
  12   N   :    0.000199219    0.000590055    0.000294329
  13   C   :    0.000202272    0.000703765    0.000367248
  14   C   :    0.000452142    0.000562717    0.000236223
  15   C   :    0.000744988    0.000356440    0.000041880
  16   C   :   -0.000582687    0.000240553   -0.000217059
  17   O   :   -0.000441637    0.000239736   -0.000494284
  18   N   :   -0.000382872    0.000287573    0.000257204
  19   C   :   -0.000471031    0.000296762    0.000039027
  20   C   :   -0.000078932    0.000113353    0.000689168
  21   H   :    0.000003341   -0.000027490    0.000446694
  22   H   :   -0.000008073   -0.000041254    0.000331786
  23   H   :    0.000068249    0.000161106    0.000334967
  24   H   :   -0.000240130    0.000132045   -0.000086266
  25   H   :   -0.000195975    0.000264848    0.000027955
  26   H   :   -0.000307056    0.000072792    0.000084998
  27   H   :   -0.000001157   -0.000335124   -0.000204522
  28   H   :   -0.000324236   -0.000234718   -0.000006235
  29   H   :   -0.000216600   -0.000257061   -0.000097896
  30   H   :    0.000214496   -0.000259440   -0.000211986
  31   H   :    0.000335032   -0.000140250   -0.000164720
  32   H   :   -0.000015380    0.000305495    0.000180069
  33   H   :    0.000211002    0.000231850    0.000091762
  34   H   :    0.000376429    0.000068194   -0.000048860
  35   H   :    0.000093124    0.000276365    0.000123134

Difference to translation invariance:
           :    0.0000000000    0.0000000000   -0.0000000000

Difference to rotation invariance:
           :   -0.0000000000   -0.0000000000    0.0000000000

Norm of the Dispersion gradient    ...    0.0034211130
RMS gradient                       ...    0.0003338664
MAX gradient                       ...    0.0007449879

                 ---------------------------
                 EXCITED STATE GRADIENT DONE
                 ---------------------------

------------------
CARTESIAN GRADIENT
------------------

   1   C   :    0.000098739   -0.000049583   -0.000035244
   2   C   :   -0.000087663   -0.000096093    0.000014376
   3   C   :   -0.000043573   -0.000067355   -0.000029922
   4   C   :   -0.000135606    0.000080673    0.000155674
   5   C   :   -0.000051135    0.000026260    0.000091399
   6   O   :    0.000511454   -0.000039750   -0.000196702
   7   C   :   -0.000055262    0.000100563    0.000080692
   8   C   :   -0.000004695    0.000046801    0.000044118
   9   C   :    0.000043689   -0.000084508   -0.000071605
  10   C   :    0.000168866   -0.000146735   -0.000128112
  11   C   :   -0.000076045    0.000102979    0.000052862
  12   N   :   -0.000193882   -0.000200252   -0.000024758
  13   C   :   -0.000052666    0.000064500    0.000027626
  14   C   :    0.000019299    0.000028543   -0.000019567
  15   C   :   -0.000061049   -0.000018510   -0.000014592
  16   C   :   -0.000646995    0.000106669    0.000007770
  17   O   :    0.000156664    0.000025997    0.000115725
  18   N   :    0.000183701   -0.000116034   -0.000015111
  19   C   :    0.000012071    0.000062998    0.000000818
  20   C   :   -0.000028936    0.000010721   -0.000036848
  21   H   :   -0.000012091    0.000048469    0.000010659
  22   H   :    0.000021163   -0.000012979    0.000031776
  23   H   :   -0.000016951    0.000001046    0.000027605
  24   H   :   -0.000032836   -0.000019538    0.000014163
  25   H   :   -0.000003614   -0.000010167   -0.000014283
  26   H   :    0.000025923   -0.000012411    0.000012577
  27   H   :    0.000014084    0.000002690    0.000029714
  28   H   :    0.000039996   -0.000039035   -0.000001463
  29   H   :   -0.000004238    0.000003171    0.000048121
  30   H   :    0.000051100    0.000022841   -0.000000675
  31   H   :   -0.000038358   -0.000051802   -0.000034572
  32   H   :    0.000001751    0.000006780   -0.000034060
  33   H   :   -0.000008150    0.000001526   -0.000036510
  34   H   :   -0.000006920    0.000015150   -0.000007828
  35   H   :    0.000097707    0.000175923    0.000026160

Difference to translation invariance:
           :   -0.0001144570   -0.0000304551    0.0000899818

Difference to rotation invariance:
           :   -0.0014284765    0.0023882247    0.0007201011

Norm of the Cartesian gradient     ...    0.0010981803
RMS gradient                       ...    0.0001071714
MAX gradient                       ...    0.0006469950

------------------------------------------------------------------------------
                  RELAXED CIS/TDA DENSITY POPULATION ANALYSIS
                                   IROOT 1
------------------------------------------------------------------------------
------------------------------------------------------------------------------
                           ORCA POPULATION ANALYSIS
------------------------------------------------------------------------------
Input electron density              ... HBQ-H.cispre.singlet.iroot1
BaseName (.gbw .S,...)              ... HBQ-H

-------
TIMINGS
-------

Total TD-DFT gradient time  ....      481.318 sec

Fock matrix formation       ....     124.836 sec  ( 25.9%)
  Coulomb formation         ....     113.755 sec  ( 91.1% of F)
  XC integration            ....      11.081 sec  (  8.9% of F)
Z-vector equation           ....     155.022 sec  ( 32.2%)
Densities                   ....       0.000 sec  (  0.0%)
One electron gradient       ....       2.042 sec  (  0.4%)
RI-J Coulomb gradient       ....      11.657 sec  (  2.4%)
COSX gradient               ....      26.494 sec  (  5.5%)
XC gradient                 ....     113.209 sec  ( 23.5%)
CPCM gradient               ....       9.590 sec  (  2.0%)
   A-Matrix (El+Nuc)        ....       0.242 sec  (  0.1%)
   Potential                ....       9.348 sec  (  1.9%)

Maximum memory used throughout the entire CIS-calculation: 268.1 MB
=> NOW LEAVING ORCA_CIS


-------------------------------------------------------------------------------
                          DFT DISPERSION CORRECTION                            
                                                                               
                              DFTD3 V3.1  Rev 1                                
                          USING Becke-Johnson damping                          
-------------------------------------------------------------------------------
-------------------------   ----------------
Dispersion correction           -0.077334691
-------------------------   ----------------


-------------------------   --------------------
FINAL SINGLE POINT ENERGY      -878.340802325550
-------------------------   --------------------

------------------------------------------------------------------------------
                         ORCA GEOMETRY RELAXATION STEP
------------------------------------------------------------------------------

Reading the OPT-File                    .... done
Getting information on internals        .... done
Copying old internal coords+grads       .... done
Making the new internal coordinates     .... (2022 redundants) done
Validating the new internal coordinates .... (2022 redundants) done
Calculating the B-matrix                .... done
Calculating the G,G- and P matrices     .... done
Transforming gradient to internals      .... done
Projecting the internal gradient        .... done
Number of atoms                         ....  35
Number of internal coordinates          .... 181
Current Energy                          ....  -878.340802326 Eh
Current gradient norm                   ....     0.001098180 Eh/bohr
Maximum allowed component of the step   ....  0.300
Current trust radius                    ....  0.300
Updating the Hessian (BFGS)             .... done
Forming the augmented Hessian           .... done
Diagonalizing the augmented Hessian     .... done
Last element of RFO vector              ....  0.999928337
Lowest eigenvalues of augmented Hessian:
 -0.000003557  0.014087980  0.015707953  0.018675121  0.020038570
Length of the computed step             ....  0.011972538
The final length of the internal step   ....  0.011972538
Converting the step to Cartesian space:
 Initial RMS(Int)=    0.0008899118
Transforming coordinates:
 Iter   0:  RMS(Cart)=    0.0038854079 RMS(Int)=    0.0008897368
done
Storing new coordinates                 .... done
The predicted energy change is          ....    -0.000001779
Previously predicted energy change      ....    -0.000006796
Actually observed energy change         ....    -0.000004000
Ratio of predicted to observed change   ....     0.588546879
New trust radius                        ....     0.300000000

                                .--------------------.
          ----------------------|Geometry convergence|-------------------------
          Item                value                   Tolerance       Converged
          ---------------------------------------------------------------------
          Energy change      -0.0000039996            0.0000050000      YES
          RMS gradient        0.0000529753            0.0001000000      YES
          MAX gradient        0.0003355047            0.0003000000      NO
          RMS step            0.0008899118            0.0020000000      YES
          MAX step            0.0063080175            0.0040000000      NO
          ........................................................
          Max(Bonds)      0.0005      Max(Angles)    0.05
          Max(Dihed)        0.36      Max(Improp)    0.00
          ---------------------------------------------------------------------

The optimization has not yet converged - more geometry cycles are needed


    ---------------------------------------------------------------------------
                         Redundant Internal Coordinates
                            (Angstroem and degrees)

        Definition                    Value    dE/dq     Step     New-Value
    ----------------------------------------------------------------------------
     1. B(C   1,C   0)                1.3883  0.000000 -0.0000    1.3883   
     2. B(C   2,C   1)                1.3773 -0.000004 -0.0001    1.3772   
     3. B(C   3,C   0)                1.4087  0.000065 -0.0001    1.4085   
     4. B(C   4,C   3)                1.4188 -0.000078  0.0001    1.4190   
     5. B(O   5,C   3)                1.3515 -0.000114  0.0001    1.3517   
     6. B(C   6,C   4)                1.4281 -0.000045  0.0000    1.4281   
     7. B(C   6,C   2)                1.4303  0.000069 -0.0002    1.4302   
     8. B(C   7,C   6)                1.3988  0.000039 -0.0001    1.3987   
     9. B(C   8,C   7)                1.3808 -0.000090  0.0000    1.3808   
    10. B(C   9,C   4)                1.4279 -0.000038  0.0000    1.4279   
    11. B(C  10,C   9)                1.4054 -0.000061  0.0000    1.4054   
    12. B(C  10,C   8)                1.4159  0.000071 -0.0002    1.4157   
    13. B(N  11,C   9)                1.3872  0.000093 -0.0002    1.3870   
    14. B(C  12,N  11)                1.3738  0.000018 -0.0001    1.3737   
    15. B(C  13,C  12)                1.3666 -0.000006 -0.0000    1.3665   
    16. B(C  14,C  13)                1.4004 -0.000009 -0.0000    1.4004   
    17. B(C  14,C  10)                1.4207 -0.000023 -0.0000    1.4206   
    18. B(C  15,O   5)                1.4205  0.000336 -0.0005    1.4200   
    19. B(O  16,C  15)                1.2119 -0.000166  0.0001    1.2120   
    20. B(N  17,C  15)                1.3303 -0.000106  0.0002    1.3305   
    21. B(C  18,N  17)                1.4602  0.000010 -0.0001    1.4601   
    22. B(C  19,N  17)                1.4614 -0.000019  0.0001    1.4615   
    23. B(H  20,C  19)                1.0832 -0.000040 -0.0000    1.0832   
    24. B(H  21,C  19)                1.0902  0.000013 -0.0000    1.0901   
    25. B(H  22,C  19)                1.0917 -0.000010  0.0000    1.0917   
    26. B(H  23,C  18)                1.0844  0.000007  0.0000    1.0844   
    27. B(H  24,C  18)                1.0913 -0.000014  0.0000    1.0913   
    28. B(H  25,C  18)                1.0908 -0.000013  0.0000    1.0908   
    29. B(H  26,C   2)                1.0816 -0.000010  0.0000    1.0816   
    30. B(H  27,C   0)                1.0792 -0.000049  0.0000    1.0792   
    31. B(H  28,C   1)                1.0802 -0.000016  0.0000    1.0802   
    32. B(H  29,C   7)                1.0813 -0.000004  0.0000    1.0813   
    33. B(H  30,C   8)                1.0823 -0.000016  0.0000    1.0823   
    34. B(H  31,C  12)                1.0787 -0.000012  0.0000    1.0787   
    35. B(H  32,C  13)                1.0804 -0.000010  0.0000    1.0804   
    36. B(H  33,C  14)                1.0795 -0.000005  0.0000    1.0795   
    37. B(H  34,O   5)                1.9484 -0.000033  0.0004    1.9488   
    38. B(H  34,N  11)                1.0051 -0.000083  0.0000    1.0051   
    39. A(C   1,C   0,H  27)          120.26 -0.000076    0.02    120.28   
    40. A(C   1,C   0,C   3)          121.15  0.000094   -0.02    121.13   
    41. A(C   3,C   0,H  27)          118.57 -0.000018    0.00    118.57   
    42. A(C   0,C   1,H  28)          120.20  0.000016   -0.00    120.20   
    43. A(C   0,C   1,C   2)          118.72 -0.000069    0.02    118.74   
    44. A(C   2,C   1,H  28)          121.07  0.000053   -0.01    121.06   
    45. A(C   1,C   2,C   6)          121.37 -0.000027    0.01    121.37   
    46. A(C   1,C   2,H  26)          120.80  0.000038   -0.01    120.79   
    47. A(C   6,C   2,H  26)          117.83 -0.000011    0.00    117.83   
    48. A(C   4,C   3,O   5)          118.46 -0.000117    0.02    118.48   
    49. A(C   0,C   3,C   4)          122.13 -0.000056    0.01    122.14   
    50. A(C   0,C   3,O   5)          119.29  0.000172   -0.03    119.26   
    51. A(C   3,C   4,C   9)          125.79  0.000023    0.00    125.79   
    52. A(C   6,C   4,C   9)          118.51 -0.000025    0.00    118.51   
    53. A(C   3,C   4,C   6)          115.70  0.000002   -0.00    115.69   
    54. A(C   3,O   5,C  15)          120.25  0.000138   -0.01    120.23   
    55. A(C   2,C   6,C   7)          118.87 -0.000036    0.00    118.87   
    56. A(C   4,C   6,C   7)          120.20 -0.000020    0.01    120.21   
    57. A(C   2,C   6,C   4)          120.92  0.000056   -0.01    120.92   
    58. A(C   8,C   7,H  29)          120.37 -0.000091    0.02    120.39   
    59. A(C   6,C   7,H  29)          119.39  0.000043   -0.01    119.38   
    60. A(C   6,C   7,C   8)          120.24  0.000049   -0.01    120.23   
    61. A(C   7,C   8,H  30)          119.90 -0.000044    0.01    119.91   
    62. A(C  10,C   8,H  30)          118.38  0.000083   -0.02    118.36   
    63. A(C   7,C   8,C  10)          121.72 -0.000039    0.01    121.73   
    64. A(C  10,C   9,N  11)          117.06 -0.000014   -0.00    117.06   
    65. A(C   4,C   9,C  10)          120.80  0.000060   -0.01    120.79   
    66. A(C   4,C   9,N  11)          122.13 -0.000047    0.01    122.15   
    67. A(C   8,C  10,C  14)          120.64  0.000018   -0.01    120.63   
    68. A(C   9,C  10,C  14)          120.84  0.000007    0.00    120.84   
    69. A(C   8,C  10,C   9)          118.53 -0.000025    0.01    118.53   
    70. A(C   9,N  11,H  34)          118.82  0.000206   -0.05    118.78   
    71. A(C   9,N  11,C  12)          122.56 -0.000006    0.00    122.57   
    72. A(C  12,N  11,H  34)          118.61 -0.000200    0.05    118.65   
    73. A(N  11,C  12,H  31)          115.39  0.000008   -0.00    115.39   
    74. A(C  13,C  12,H  31)          123.82  0.000000    0.00    123.82   
    75. A(N  11,C  12,C  13)          120.80 -0.000008    0.00    120.80   
    76. A(C  12,C  13,H  32)          119.05  0.000013   -0.00    119.05   
    77. A(C  12,C  13,C  14)          119.74 -0.000011    0.00    119.74   
    78. A(C  14,C  13,H  32)          121.21 -0.000002    0.00    121.21   
    79. A(C  10,C  14,H  33)          119.37 -0.000001   -0.00    119.37   
    80. A(C  10,C  14,C  13)          119.00  0.000032   -0.01    118.99   
    81. A(C  13,C  14,H  33)          121.63 -0.000031    0.01    121.64   
    82. A(O  16,C  15,N  17)          128.85  0.000105   -0.03    128.82   
    83. A(O   5,C  15,N  17)          110.69 -0.000042    0.03    110.71   
    84. A(O   5,C  15,O  16)          120.41 -0.000065    0.01    120.42   
    85. A(C  18,N  17,C  19)          115.72 -0.000044    0.00    115.72   
    86. A(C  15,N  17,C  19)          125.25  0.000090    0.00    125.25   
    87. A(C  15,N  17,C  18)          118.97 -0.000046   -0.00    118.96   
    88. A(H  24,C  18,H  25)          108.95  0.000013    0.00    108.95   
    89. A(H  23,C  18,H  25)          109.71 -0.000001    0.01    109.71   
    90. A(N  17,C  18,H  25)          109.37 -0.000042    0.01    109.38   
    91. A(H  23,C  18,H  24)          109.71 -0.000004    0.00    109.71   
    92. A(N  17,C  18,H  24)          109.34  0.000005   -0.01    109.33   
    93. A(N  17,C  18,H  23)          109.75  0.000029   -0.01    109.74   
    94. A(H  21,C  19,H  22)          108.86 -0.000030    0.01    108.87   
    95. A(H  20,C  19,H  22)          109.64 -0.000004   -0.00    109.64   
    96. A(N  17,C  19,H  22)          109.88  0.000025   -0.01    109.86   
    97. A(H  20,C  19,H  21)          109.07 -0.000020    0.01    109.07   
    98. A(N  17,C  19,H  21)          108.43  0.000021   -0.00    108.43   
    99. A(N  17,C  19,H  20)          110.92  0.000006    0.00    110.92   
   100. D(H  28,C   1,C   0,H  27)      1.30  0.000002    0.01      1.31   
   101. D(C   2,C   1,C   0,C   3)      0.61 -0.000000    0.02      0.63   
   102. D(H  28,C   1,C   0,C   3)    179.75 -0.000001   -0.00    179.75   
   103. D(C   2,C   1,C   0,H  27)   -177.83  0.000002    0.03   -177.81   
   104. D(C   6,C   2,C   1,C   0)      0.17  0.000011   -0.03      0.14   
   105. D(C   6,C   2,C   1,H  28)   -178.96  0.000012   -0.01   -178.97   
   106. D(H  26,C   2,C   1,H  28)      0.49 -0.000001    0.01      0.50   
   107. D(H  26,C   2,C   1,C   0)    179.62 -0.000002   -0.01    179.61   
   108. D(O   5,C   3,C   0,H  27)      1.28  0.000015   -0.01      1.27   
   109. D(O   5,C   3,C   0,C   1)   -177.19  0.000018   -0.00   -177.19   
   110. D(C   4,C   3,C   0,H  27)    177.21 -0.000017    0.01    177.21   
   111. D(C   4,C   3,C   0,C   1)     -1.26 -0.000014    0.02     -1.25   
   112. D(C   6,C   4,C   3,O   5)    177.00 -0.000006   -0.02    176.98   
   113. D(C   6,C   4,C   3,C   0)      1.04  0.000014   -0.04      1.01   
   114. D(C   9,C   4,C   3,O   5)     -3.47 -0.000003   -0.04     -3.52   
   115. D(C   9,C   4,C   3,C   0)   -179.43  0.000017   -0.06   -179.49   
   116. D(C  15,O   5,C   3,C   4)    144.75  0.000065   -0.19    144.56   
   117. D(C  15,O   5,C   3,C   0)    -39.18  0.000037   -0.17    -39.35   
   118. D(C   7,C   6,C   4,C   9)     -0.31 -0.000002    0.02     -0.28   
   119. D(C   7,C   6,C   4,C   3)    179.26  0.000000    0.00    179.26   
   120. D(C   2,C   6,C   4,C   9)   -179.82 -0.000007    0.04   -179.78   
   121. D(C   2,C   6,C   4,C   3)     -0.26 -0.000005    0.02     -0.24   
   122. D(C   7,C   6,C   2,H  26)      0.67 -0.000001    0.01      0.68   
   123. D(C   7,C   6,C   2,C   1)   -179.87 -0.000014    0.03   -179.83   
   124. D(C   4,C   6,C   2,H  26)   -179.80  0.000004   -0.01   -179.81   
   125. D(C   4,C   6,C   2,C   1)     -0.34 -0.000009    0.01     -0.33   
   126. D(H  29,C   7,C   6,C   4)   -179.63  0.000005   -0.02   -179.65   
   127. D(H  29,C   7,C   6,C   2)     -0.10  0.000010   -0.04     -0.14   
   128. D(C   8,C   7,C   6,C   4)      0.47  0.000007   -0.03      0.44   
   129. D(C   8,C   7,C   6,C   2)    179.99  0.000012   -0.05    179.95   
   130. D(C  10,C   8,C   7,C   6)     -0.42 -0.000004    0.00     -0.42   
   131. D(H  30,C   8,C   7,H  29)     -0.34 -0.000002    0.01     -0.33   
   132. D(H  30,C   8,C   7,C   6)    179.57 -0.000004    0.01    179.58   
   133. D(C  10,C   8,C   7,H  29)    179.67 -0.000002    0.00    179.67   
   134. D(N  11,C   9,C   4,C   6)    179.84 -0.000007   -0.01    179.83   
   135. D(N  11,C   9,C   4,C   3)      0.33 -0.000009    0.02      0.34   
   136. D(C  10,C   9,C   4,C   6)      0.10 -0.000005    0.00      0.11   
   137. D(C  10,C   9,C   4,C   3)   -179.41 -0.000007    0.03   -179.39   
   138. D(C  14,C  10,C   9,N  11)      0.14  0.000010   -0.01      0.12   
   139. D(C  14,C  10,C   9,C   4)    179.89  0.000008   -0.02    179.86   
   140. D(C   8,C  10,C   9,N  11)   -179.81  0.000009   -0.01   -179.82   
   141. D(C   8,C  10,C   9,C   4)     -0.06  0.000007   -0.02     -0.08   
   142. D(C  14,C  10,C   8,H  30)      0.28 -0.000004    0.01      0.30   
   143. D(C  14,C  10,C   8,C   7)   -179.73 -0.000003    0.02   -179.71   
   144. D(C   9,C  10,C   8,H  30)   -179.77 -0.000004    0.01   -179.76   
   145. D(C   9,C  10,C   8,C   7)      0.22 -0.000003    0.02      0.24   
   146. D(H  34,N  11,C   9,C  10)   -179.83 -0.000022    0.04   -179.78   
   147. D(H  34,N  11,C   9,C   4)      0.43 -0.000020    0.05      0.48   
   148. D(C  12,N  11,C   9,C  10)     -0.16 -0.000002   -0.01     -0.17   
   149. D(C  12,N  11,C   9,C   4)   -179.91 -0.000000    0.00   -179.91   
   150. D(H  31,C  12,N  11,H  34)     -0.44  0.000012   -0.02     -0.46   
   151. D(H  31,C  12,N  11,C   9)    179.89 -0.000009    0.03    179.92   
   152. D(C  13,C  12,N  11,H  34)    179.70  0.000015   -0.03    179.67   
   153. D(C  13,C  12,N  11,C   9)      0.04 -0.000007    0.02      0.06   
   154. D(H  32,C  13,C  12,H  31)      0.05  0.000006   -0.02      0.03   
   155. D(H  32,C  13,C  12,N  11)    179.89  0.000002   -0.01    179.88   
   156. D(C  14,C  13,C  12,H  31)   -179.73  0.000010   -0.02   -179.75   
   157. D(C  14,C  13,C  12,N  11)      0.12  0.000007   -0.01      0.11   
   158. D(C  10,C  14,C  13,C  12)     -0.14  0.000001   -0.01     -0.15   
   159. D(H  33,C  14,C  10,C   9)   -179.63 -0.000007    0.02   -179.61   
   160. D(H  33,C  14,C  10,C   8)      0.31 -0.000006    0.02      0.33   
   161. D(C  13,C  14,C  10,C   9)      0.01 -0.000009    0.02      0.04   
   162. D(C  13,C  14,C  10,C   8)    179.95 -0.000009    0.02    179.98   
   163. D(H  33,C  14,C  13,H  32)     -0.27  0.000003   -0.01     -0.28   
   164. D(H  33,C  14,C  13,C  12)    179.49 -0.000002   -0.01    179.49   
   165. D(C  10,C  14,C  13,H  32)   -179.91  0.000005   -0.01   -179.92   
   166. D(N  17,C  15,O   5,C   3)    155.49 -0.000079    0.29    155.78   
   167. D(O  16,C  15,O   5,C   3)    -26.92 -0.000116    0.36    -26.56   
   168. D(C  19,N  17,C  15,O  16)    178.45  0.000021   -0.05    178.41   
   169. D(C  19,N  17,C  15,O   5)     -4.22 -0.000026    0.03     -4.19   
   170. D(C  18,N  17,C  15,O  16)     -4.50  0.000021   -0.05     -4.55   
   171. D(C  18,N  17,C  15,O   5)    172.83 -0.000026    0.03    172.85   
   172. D(H  25,C  18,N  17,C  15)    121.09  0.000011   -0.07    121.02   
   173. D(H  24,C  18,N  17,C  19)     57.64  0.000009   -0.07     57.57   
   174. D(H  24,C  18,N  17,C  15)   -119.69  0.000005   -0.07   -119.75   
   175. D(H  23,C  18,N  17,C  19)    178.01  0.000025   -0.08    177.93   
   176. D(H  23,C  18,N  17,C  15)      0.69  0.000021   -0.08      0.62   
   177. D(H  22,C  19,N  17,C  15)    107.97  0.000035   -0.15    107.82   
   178. D(H  21,C  19,N  17,C  18)     49.71  0.000026   -0.14     49.57   
   179. D(H  21,C  19,N  17,C  15)   -133.16  0.000026   -0.15   -133.31   
   180. D(H  20,C  19,N  17,C  18)    169.45  0.000019   -0.14    169.31   
   181. D(H  20,C  19,N  17,C  15)    -13.42  0.000019   -0.14    -13.56   
    ----------------------------------------------------------------------------

Geometry step timings:
Preparation and reading OPT file:      0.001 s ( 5.239 %)
Internal coordinates            :      0.000 s ( 0.172 %)
B/P matrices and projection     :      0.002 s (14.410 %)
Hessian update/contruction      :      0.007 s (42.518 %)
Making the step                 :      0.002 s ( 9.975 %)
Converting the step to Cartesian:      0.000 s ( 1.071 %)
Storing new data                :      0.001 s ( 8.489 %)
Checking convergence            :      0.000 s ( 0.102 %)
Final printing                  :      0.003 s (18.005 %)
Total time                      :      0.016 s

Time for energy+gradient        :    834.896 s
Time for complete geometry iter :    834.990 s

         *************************************************************
         *                GEOMETRY OPTIMIZATION CYCLE   4            *
         *************************************************************
---------------------------------
CARTESIAN COORDINATES (ANGSTROEM)
---------------------------------
  C     -3.077024   -0.650220   -0.043420
  C     -2.662523   -1.730013   -0.811231
  C     -1.337841   -1.811298   -1.179020
  C     -2.171906    0.356015    0.346776
  C     -0.796142    0.308679    0.002492
  O     -2.603239    1.360349    1.141919
  C     -0.392875   -0.813161   -0.783927
  C      0.939054   -0.945804   -1.189676
  C      1.874495    0.002131   -0.824996
  C      0.189004    1.277058    0.364054
  C      1.525320    1.131595   -0.046153
  N     -0.119985    2.396446    1.122459
  C      0.820323    3.334239    1.473666
  C      2.122533    3.200259    1.081567
  C      2.505720    2.095846    0.310507
  C     -3.890883    1.925614    0.944906
  O     -4.413635    1.895242   -0.148153
  N     -4.336254    2.484331    2.067255
  C     -5.574407    3.257278    2.029312
  C     -3.652023    2.445403    3.358121
  H     -2.856568    1.710170    3.352312
  H     -4.378726    2.177948    4.125447
  H     -3.240225    3.429641    3.589500
  H     -5.979195    3.251216    1.023334
  H     -5.368981    4.283947    2.337160
  H     -6.296487    2.818336    2.719151
  H     -0.977636   -2.641321   -1.771575
  H     -4.101498   -0.579871    0.288457
  H     -3.368671   -2.495283   -1.098525
  H      1.228518   -1.797554   -1.789586
  H      2.905157   -0.109175   -1.136072
  H      0.452931    4.158913    2.063984
  H      2.838279    3.955669    1.372063
  H      3.523967    1.963750   -0.022771
  H     -1.067510    2.524402    1.432472

----------------------------
CARTESIAN COORDINATES (A.U.)
----------------------------
  NO LB      ZA    FRAG     MASS         X           Y           Z
   0 C     6.0000    0    12.011   -5.814732   -1.228738   -0.082052
   1 C     6.0000    0    12.011   -5.031440   -3.269250   -1.533004
   2 C     6.0000    0    12.011   -2.528153   -3.422856   -2.228025
   3 C     6.0000    0    12.011   -4.104307    0.672770    0.655312
   4 C     6.0000    0    12.011   -1.504490    0.583318    0.004710
   5 O     8.0000    0    15.999   -4.919409    2.570688    2.157913
   6 C     6.0000    0    12.011   -0.742426   -1.536652   -1.481407
   7 C     6.0000    0    12.011    1.774555   -1.787310   -2.248162
   8 C     6.0000    0    12.011    3.542283    0.004027   -1.559017
   9 C     6.0000    0    12.011    0.357167    2.413290    0.687962
  10 C     6.0000    0    12.011    2.882438    2.138405   -0.087217
  11 N     7.0000    0    14.007   -0.226739    4.528627    2.121140
  12 C     6.0000    0    12.011    1.550186    6.300799    2.784826
  13 C     6.0000    0    12.011    4.011007    6.047612    2.043866
  14 C     6.0000    0    12.011    4.735125    3.960575    0.586773
  15 C     6.0000    0    12.011   -7.352703    3.638883    1.785614
  16 O     8.0000    0    15.999   -8.340561    3.581489   -0.279969
  17 N     7.0000    0    14.007   -8.194333    4.694705    3.906546
  18 C     6.0000    0    12.011  -10.534102    6.155362    3.834845
  19 C     6.0000    0    12.011   -6.901324    4.621142    6.345929
  20 H     1.0000    0     1.008   -5.398130    3.231753    6.334952
  21 H     1.0000    0     1.008   -8.274593    4.115726    7.795964
  22 H     1.0000    0     1.008   -6.123138    6.481083    6.783172
  23 H     1.0000    0     1.008  -11.299041    6.143909    1.933822
  24 H     1.0000    0     1.008  -10.145904    8.095488    4.416592
  25 H     1.0000    0     1.008  -11.898637    5.325884    5.138450
  26 H     1.0000    0     1.008   -1.847464   -4.991374   -3.347792
  27 H     1.0000    0     1.008   -7.750708   -1.095797    0.545105
  28 H     1.0000    0     1.008   -6.365866   -4.715402   -2.075912
  29 H     1.0000    0     1.008    2.321563   -3.396886   -3.381827
  30 H     1.0000    0     1.008    5.489952   -0.206311   -2.146865
  31 H     1.0000    0     1.008    0.855916    7.859206    3.900364
  32 H     1.0000    0     1.008    5.363569    7.475131    2.592823
  33 H     1.0000    0     1.008    6.659333    3.710951   -0.043030
  34 H     1.0000    0     1.008   -2.017302    4.770429    2.706980

--------------------------------
INTERNAL COORDINATES (ANGSTROEM)
--------------------------------
 C      0   0   0     0.000000000000     0.00000000     0.00000000
 C      1   0   0     1.388270635803     0.00000000     0.00000000
 C      2   1   0     1.377192385744   118.73753447     0.00000000
 C      1   2   3     1.408545722606   121.13074503     0.62642749
 C      4   1   2     1.418978083003   122.13911202   358.75394109
 O      4   1   2     1.351661151576   119.25606035   182.81220889
 C      5   4   1     1.428146794462   115.69499279     1.00766398
 C      7   5   4     1.398664247390   120.20776873   179.25917589
 C      8   7   5     1.380805374038   120.22617379     0.43985678
 C      5   4   1     1.427934872510   125.79174528   180.51139939
 C     10   5   4     1.405407269846   120.79020359   180.61462713
 N     10   5   4     1.386969103493   122.14670639     0.34319822
 C     12  10   5     1.373674482615   122.56703770   180.08942050
 C     13  12  10     1.366544303398   120.79732357     0.06151687
 C     14  13  12     1.400390450800   119.73911618     0.10529719
 C      6   4   1     1.419987430451   120.23450524   320.64590969
 O     16   6   4     1.212011077941   120.41510643   333.43981492
 N     16   6   4     1.330483581571   110.71219305   155.78100605
 C     18  16   6     1.460105764161   118.96281515   172.85449903
 C     18  16   6     1.461513755299   125.25165019   355.81353585
 H     20  18  16     1.083213657276   110.92458552   346.43866359
 H     20  18  16     1.090145176899   108.42963832   226.69163592
 H     20  18  16     1.091713737138   109.86318993   107.81715898
 H     19  18  16     1.084380945607   109.73642375     0.61628972
 H     19  18  16     1.091339142718   109.33304403   240.24927965
 H     19  18  16     1.090846490301   109.38258419   121.02218041
 H      3   2   1     1.081577051171   120.79345381   179.60861330
 H      1   2   3     1.079184100722   120.27978232   182.19296785
 H      2   1   3     1.080195584013   120.19523223   179.11886564
 H      8   7   5     1.081277161390   119.37922082   180.34997475
 H      9   8   7     1.082321933766   119.90848374   179.57851369
 H     13  12  10     1.078674467365   115.38550024   179.92478323
 H     14  13  12     1.080427561663   119.05054755   179.88184035
 H     15  14  13     1.079514032275   121.64063555   179.48727414
 H     12  10   5     1.005129320820   118.77741101     0.47860251

---------------------------
INTERNAL COORDINATES (A.U.)
---------------------------
 C      0   0   0     0.000000000000     0.00000000     0.00000000
 C      1   0   0     2.623451301432     0.00000000     0.00000000
 C      2   1   0     2.602516442777   118.73753447     0.00000000
 C      1   2   3     2.661765662832   121.13074503     0.62642749
 C      4   1   2     2.681479966911   122.13911202   358.75394109
 O      4   1   2     2.554269402340   119.25606035   182.81220889
 C      5   4   1     2.698806320571   115.69499279     1.00766398
 C      7   5   4     2.643092380874   120.20776873   179.25917589
 C      8   7   5     2.609344001179   120.22617379     0.43985678
 C      5   4   1     2.698405846119   125.79174528   180.51139939
 C     10   5   4     2.655834846631   120.79020359   180.61462713
 N     10   5   4     2.620991761811   122.14670639     0.34319822
 C     12  10   5     2.595868569299   122.56703770   180.08942050
 C     13  12  10     2.582394483293   120.79732357     0.06151687
 C     14  13  12     2.646354432570   119.73911618     0.10529719
 C      6   4   1     2.683387357164   120.23450524   320.64590969
 O     16   6   4     2.290369008588   120.41510643   333.43981492
 N     16   6   4     2.514249594849   110.71219305   155.78100605
 C     18  16   6     2.759200020823   118.96281515   172.85449903
 C     18  16   6     2.761860738474   125.25165019   355.81353585
 H     20  18  16     2.046977156774   110.92458552   346.43866359
 H     20  18  16     2.060075830555   108.42963832   226.69163592
 H     20  18  16     2.063039979831   109.86318993   107.81715898
 H     19  18  16     2.049183012039   109.73642375     0.61628972
 H     19  18  16     2.062332098965   109.33304403   240.24927965
 H     19  18  16     2.061401120817   109.38258419   121.02218041
 H      3   2   1     2.043884419447   120.79345381   179.60861330
 H      1   2   3     2.039362398446   120.27978232   182.19296785
 H      2   1   3     2.041273824855   120.19523223   179.11886564
 H      8   7   5     2.043317709892   119.37922082   180.34997475
 H      9   8   7     2.045292043554   119.90848374   179.57851369
 H     13  12  10     2.038399330973   115.38550024   179.92478323
 H     14  13  12     2.041712199083   119.05054755   179.88184035
 H     15  14  13     2.039985878725   121.64063555   179.48727414
 H     12  10   5     1.899419145523   118.77741101     0.47860251

------------------------------------------------------------------------------
                   ___                                                        
                  /   \      - P O W E R E D   B Y -                         
                 /     \                                                     
                 |  |  |   _    _      __       _____    __    __             
                 |  |  |  | |  | |    /  \     |  _  \  |  |  /  |          
                  \  \/   | |  | |   /    \    | | | |  |  | /  /          
                 / \  \   | |__| |  /  /\  \   | |_| |  |  |/  /          
                |  |  |   |  __  | /  /__\  \  |    /   |      \           
                |  |  |   | |  | | |   __   |  |    \   |  |\   \          
                \     /   | |  | | |  |  |  |  | |\  \  |  | \   \       
                 \___/    |_|  |_| |__|  |__|  |_| \__\ |__|  \__/        
                                                                              
                      - O R C A' S   B I G   F R I E N D -                    
                                      &                                       
                       - I N T E G R A L  F E E D E R -                       
                                                                              
 v1 FN, 2020, v2 2021, v3 2022-2024                                           
------------------------------------------------------------------------------


----------------------
SHARK INTEGRAL PACKAGE
----------------------

Number of atoms                             ...     35
Number of basis functions                   ...    570
Number of shells                            ...    260
Maximum angular momentum                    ...      2
Integral batch strategy                     ... SHARK/LIBINT Hybrid
RI-J (if used) integral strategy            ... SPLIT-RIJ (Revised 2003 algorithm where possible)
Printlevel                                  ...      1
Contraction scheme used                     ... SEGMENTED contraction
Prescreening option                         ... SCHWARTZ
   Thresh                                   ... 2.500e-11
   Tcut                                     ... 2.500e-12
   Tpresel                                  ... 2.500e-12 
Coulomb Range Separation                    ... NOT USED
Exchange Range Separation                   ... NOT USED
Multipole approximations                    ... NOT USED
Finite Nucleus Model                        ... NOT USED
CABS basis                                  ... NOT available
Auxiliary Coulomb fitting basis             ... AVAILABLE
   # of basis functions in Aux-J            ...   1145
   # of shells in Aux-J                     ...    375
   Maximum angular momentum in Aux-J        ...      4
Auxiliary J/K fitting basis                 ... NOT available
Auxiliary Correlation fitting basis         ... AVAILABLE
   # of basis functions in Aux-C            ...   1745
   # of shells in Aux-C                     ...    545
   Maximum angular momentum in Aux-C        ...      4
Auxiliary 'external' fitting basis          ... NOT available

Checking pre-screening integrals            ... done (  0.0 sec) Dimension = 260
Check shell pair data                       ... done (  0.0 sec)
Shell pair information
Shell pair cut-off parameter TPreSel        ...   2.5e-12
Total number of shell pairs                 ...     33930
Shell pairs after pre-screening             ...     25282
Total number of primitive shell pairs       ...    111170
Primitive shell pairs kept                  ...     54990
          la=0 lb=0:   7469 shell pairs
          la=1 lb=0:   8325 shell pairs
          la=1 lb=1:   2325 shell pairs
          la=2 lb=0:   4202 shell pairs
          la=2 lb=1:   2346 shell pairs
          la=2 lb=2:    615 shell pairs

Calculating one electron integrals          ... done (  0.1 sec)
Calculating RI/J V-Matrix + Cholesky decomp.... done (  0.2 sec)
Calculating RI/C V-Matrix + Cholesky decomp.... done (  0.5 sec)
Calculating Nuclear repulsion               ... done (  0.0 sec) ENN=   1506.963135712476 Eh

Diagonalization of the overlap matrix:
Smallest eigenvalue                        ... 3.483e-06
Time for diagonalization                   ...    0.029 sec
Threshold for overlap eigenvalues          ... 1.000e-07
Number of eigenvalues below threshold      ... 0
Time for construction of square roots      ...    0.040 sec
Total time needed                          ...    0.078 sec

-------------------
DFT GRID GENERATION
-------------------

General Integration Accuracy     IntAcc      ... 4.388
Radial Grid Type                 RadialGrid  ... OptM3 with GC (2021)
Angular Grid (max. ang.)         AngularGrid ... 4 (Lebedev-302)
Angular grid pruning method      GridPruning ... 4 (adaptive)
Weight generation scheme         WeightScheme... mBecke (2022)
Basis function cutoff            BFCut       ... 1.0000e-11
Integration weight cutoff        WCut        ... 1.0000e-14
Partially contracted basis set               ... off
Rotationally invariant grid construction     ... off
Angular grids for H and He will be reduced by one unit

Total number of grid points                  ...   167564
Total number of batches                      ...     2638
Average number of points per batch           ...       63
Average number of grid points per atom       ...     4788

--------------------
COSX GRID GENERATION
--------------------

GRIDX 1
-------
General Integration Accuracy     IntAcc      ... 3.816
Radial Grid Type                 RadialGrid  ... OptM3 with GC (2021)
Angular Grid (max. ang.)         AngularGrid ... 1 (Lebedev-50)
Angular grid pruning method      GridPruning ... 4 (adaptive)
Weight generation scheme         WeightScheme... mBecke (2022)
Basis function cutoff            BFCut       ... 1.0000e-11
Integration weight cutoff        WCut        ... 1.0000e-14
Partially contracted basis set               ... on
Rotationally invariant grid construction     ... off
Angular grids for H and He will be reduced by one unit

Total number of grid points                  ...    21318
Total number of batches                      ...      185
Average number of points per batch           ...      115
Average number of grid points per atom       ...      609
UseSFitting                                  ... on

GRIDX 2
-------
General Integration Accuracy     IntAcc      ... 4.020
Radial Grid Type                 RadialGrid  ... OptM3 with GC (2021)
Angular Grid (max. ang.)         AngularGrid ... 2 (Lebedev-110)
Angular grid pruning method      GridPruning ... 4 (adaptive)
Weight generation scheme         WeightScheme... mBecke (2022)
Basis function cutoff            BFCut       ... 1.0000e-11
Integration weight cutoff        WCut        ... 1.0000e-14
Partially contracted basis set               ... on
Rotationally invariant grid construction     ... off
Angular grids for H and He will be reduced by one unit

Total number of grid points                  ...    46387
Total number of batches                      ...      377
Average number of points per batch           ...      123
Average number of grid points per atom       ...     1325
UseSFitting                                  ... on

GRIDX 3
-------
General Integration Accuracy     IntAcc      ... 4.338
Radial Grid Type                 RadialGrid  ... OptM3 with GC (2021)
Angular Grid (max. ang.)         AngularGrid ... 3 (Lebedev-194)
Angular grid pruning method      GridPruning ... 4 (adaptive)
Weight generation scheme         WeightScheme... mBecke (2022)
Basis function cutoff            BFCut       ... 1.0000e-11
Integration weight cutoff        WCut        ... 1.0000e-14
Partially contracted basis set               ... on
Rotationally invariant grid construction     ... off
Angular grids for H and He will be reduced by one unit

Total number of grid points                  ...   101598
Total number of batches                      ...      810
Average number of points per batch           ...      125
Average number of grid points per atom       ...     2903
UseSFitting                                  ... on
Initializing property integral containers    ... done (  0.0 sec)

SHARK setup successfully completed in   6.6 seconds

Maximum memory used throughout the entire STARTUP-calculation: 107.5 MB
Occupation numbers will be reassigned to an Aufbau configuration
             **** ENERGY FILE WAS UPDATED (HBQ-H.en.tmp) ****
Finished Guess after   0.8 sec
Maximum memory used throughout the entire GUESS-calculation: 68.9 MB
--------------------
CPCM SOLVATION MODEL
--------------------
CPCM parameters:
  Epsilon                                         ...      80.1510
  Refrac                                          ...       1.3328
  Rsolv                                           ...       1.3000
  Surface type                                    ... GAUSSIAN VDW
  Discretization scheme                           ... Constant charge density
    Threshold for H atoms                         ...       5.0000 (charges/Ang^2)
    Threshold for non-H atoms                     ...       5.0000 (charges/Ang^2)
  Epsilon function type                           ...         CPCM
Solvent:                                          ... WATER
Radii:
  Scheme                                          ... Element-dependent radii
  Radius for C  used is    3.8550 Bohr (=   2.0400 Ang.)
  Radius for O  used is    3.4469 Bohr (=   1.8240 Ang.)
  Radius for N  used is    3.5149 Bohr (=   1.8600 Ang.)
  Radius for H  used is    2.4944 Bohr (=   1.3200 Ang.)
Calculating surface                               ...        done! (  0.0s)
Cavity surface points                             ...         3047
Cavity Volume                                     ...    2130.2603
Cavity Surface-area                               ...    1085.8562
Calculating surface distance matrix               ...        done! (  0.0s)
Performing Cholesky decomposition & store         ...        done! (  2.3s)
Overall time for CPCM initialization              ...                 2.4s

----------------------------------------D-I-I-S--------------------------------------------
Iteration    Energy (Eh)           Delta-E    RMSDP     MaxDP     DIISErr   Damp  Time(sec)
-------------------------------------------------------------------------------------------
               ***  Starting incremental Fock matrix formation  ***
                              *** Initializing SOSCF ***
---------------------------------------S-O-S-C-F--------------------------------------
Iteration    Energy (Eh)           Delta-E    RMSDP     MaxDP     MaxGrad    Time(sec)
--------------------------------------------------------------------------------------
    1    -878.3702854915079570     0.00e+00  4.87e-05  2.83e-03  7.54e-05    37.1
               *** Restarting incremental Fock matrix formation ***
    2    -878.3703119558379058    -2.65e-05  1.31e-05  4.93e-04  9.73e-05    37.3
    3    -878.3703146836030555    -2.73e-06  7.03e-06  6.92e-04  2.36e-05    22.4
    4    -878.3703145842475806     9.94e-08  6.30e-06  6.05e-04  5.07e-05    19.7
    5    -878.3703147837074994    -1.99e-07  1.04e-05  1.27e-03  4.27e-06    20.4
    6    -878.3703147779826850     5.72e-09  2.85e-06  1.97e-04  8.53e-06    16.5
                 **** Energy Check signals convergence ****

               *****************************************************
               *                     SUCCESS                       *
               *           SCF CONVERGED AFTER   6 CYCLES          *
               *****************************************************

Recomputing exchange energy using gridx3       ... done (   58.140 sec)
Old exchange energy                            :    -23.567513249 Eh
New exchange energy                            :    -23.567492644 Eh
Exchange energy change after final integration :      0.000020605 Eh
Total energy after final integration           :   -878.370294173 Eh
             **** ENERGY FILE WAS UPDATED (HBQ-H.en.tmp) ****

----------------
TOTAL SCF ENERGY
----------------

Total Energy       :       -878.37029417317751 Eh          -23901.67084 eV

Components:
Nuclear Repulsion  :       1506.96313571247606 Eh           41006.55166 eV
Electronic Energy  :      -2385.24641786934399 Eh          -64905.85478 eV
One Electron Energy:      -4165.58817313970303 Eh         -113351.41687 eV
Two Electron Energy:       1780.34175527035904 Eh           48445.56209 eV
CPCM Dielectric    :         -0.08703262111455 Eh              -2.36828 eV

Virial components:
Potential Energy   :      -1752.81071890441694 Eh          -47696.40450 eV
Kinetic Energy     :        874.44042473123943 Eh           23794.73366 eV
Virial Ratio       :          2.00449415343892

DFT components:
N(Alpha)           :       69.999985253250 electrons
N(Beta)            :       69.999985253250 electrons
N(Total)           :      139.999970506500 electrons
E(X)               :      -93.697671228542 Eh       
E(C)               :       -5.639060842041 Eh       
E(XC)              :      -99.336732070583 Eh       

CPCM Solvation Model Properties:
Surface-charge          :         -1.02879906294703
Corrected charge        :         -1.00000000000000
Outlying charge corr.   :          0.00004609259875 Eh               0.00125 eV
Free-energy (cav+disp)  :  This term is not implemented in the current solvation scheme

---------------
SCF CONVERGENCE
---------------

  Last Energy change         ...   -5.7248e-09  Tolerance :   1.0000e-08
  Last MAX-Density change    ...    1.9667e-04  Tolerance :   1.0000e-07
  Last RMS-Density change    ...    2.8549e-06  Tolerance :   5.0000e-09
  Last DIIS Error            ...    1.8316e-03  Tolerance :   5.0000e-07
  Last Orbital Gradient      ...    8.5337e-06  Tolerance :   1.0000e-05
  Last Orbital Rotation      ...    1.4939e-05  Tolerance :   1.0000e-05


Total SCF time: 0 days 0 hours 3 min 35 sec 
Finished LeanSCF after 215.8 sec

Maximum memory used throughout the entire LEANSCF-calculation: 130.6 MB

------------------------------------------------------------------------------
                         ORCA PROPERTY INTEGRAL CALCULATIONS
------------------------------------------------------------------------------

GBWName                                   ... HBQ-H.gbw
Number of atoms                           ...     35
Number of basis functions                 ...    570
Max core memory                           ...   1024 MB

Dipole integrals                          ... YES
Quadrupole integrals                      ...  NO
Linear momentum integrals                 ... YES
Angular momentum integrals                ... YES
Higher moments length integrals           ...  NO
Higher moments velocity integrals         ...  NO
Kinetic energy integrals                  ...  NO
GIAO right hand sides                     ...  NO
GIAO dipole derivative integrals          ...  NO
SOC integrals                             ...  NO
EPR diamagnetic integrals (GIAO)          ...  NO
EPR gauge integrals                       ...  NO
Field gradient integrals                  ...  NO (   0 nuclei)
Spin-dipole/Fermi contact integrals       ...  NO (   0 nuclei)
Contact density integrals                 ...  NO (   0 nuclei)
Nucleus-orbit integrals                   ...  NO (   0 nuclei)
Geometric perturbations                   ...  NO (  35 nuclei)

Choice of electric origin   ... Center of mass
Position of electric origin ... ( -2.5781,  2.1494,  0.9731) 
Choice of magnetic origin   ... GIAO
Position of magnetic origin ... (  0.0000,  0.0000,  0.0000) 

Calculating integrals                     ... Electric Dipole (Length)     done (  0.1 sec)
Calculating integrals                     ... Linear Momentum              done (  0.2 sec)
Calculating integrals                     ... Angular Momentum  (ElOri)    done (  0.2 sec)

Property integrals calculated in   0.4 sec

Maximum memory used throughout the entire PROPINT-calculation: 71.3 MB
------------------------------------------------------------------------------
                        ORCA TD-DFT/TDA CALCULATION
------------------------------------------------------------------------------

Input orbitals are from        ... HBQ-H.gbw
CI-vector output               ... HBQ-H.cis
Solver                         ... FN-2001
Tamm-Dancoff approximation     ... operative
CIS-Integral strategy          ... AO-integrals
Integral handling              ... AO integral Direct
Max. core memory used          ... 512 MB
Reference state                ... RHF
Generation of triplets         ... off
Follow IRoot                   ... off
Number of operators            ... 1
Orbital ranges used for CIS calculation:
 Operator 0:  Orbitals  20... 69  to  70...569
XAS localization array:
 Operator 0:  Orbitals  -1... -1

-------------------
XC-INTEGRATION GRID
-------------------

General Integration Accuracy     IntAcc      ... 3.467
Radial Grid Type                 RadialGrid  ... OptM3 with GC (2021)
Angular Grid (max. ang.)         AngularGrid ... 1 (Lebedev-50)
Angular grid pruning method      GridPruning ... 4 (adaptive)
Weight generation scheme         WeightScheme... mBecke (2022)
Basis function cutoff            BFCut       ... 1.0000e-11
Integration weight cutoff        WCut        ... 1.0000e-14
Partially contracted basis set               ... off
Rotationally invariant grid construction     ... off
Angular grids for H and He will be reduced by one unit

Total number of grid points                  ...    24526
Total number of batches                      ...      401
Average number of points per batch           ...       61
Average number of grid points per atom       ...      701

---------------------
COSX-INTEGRATION GRID
---------------------

General Integration Accuracy     IntAcc      ... 3.067
Radial Grid Type                 RadialGrid  ... OptM3 with GC (2021)
Angular Grid (max. ang.)         AngularGrid ... 1 (Lebedev-50)
Angular grid pruning method      GridPruning ... 4 (adaptive)
Weight generation scheme         WeightScheme... mBecke (2022)
Basis function cutoff            BFCut       ... 1.0000e-11
Integration weight cutoff        WCut        ... 1.0000e-14
Partially contracted basis set               ... on
Rotationally invariant grid construction     ... off
Angular grids for H and He will be reduced by one unit

Total number of grid points                  ...    11334
Total number of batches                      ...      112
Average number of points per batch           ...      101
Average number of grid points per atom       ...      324

---------------
TD-DFT XC SETUP
---------------

DFT calculation                         ... on
Name of the grid file                   ... HBQ-H.grid_cis.tmp
RI-approximation                        ... on
Aux-basis dimension                     ... 1745
Exchange functional (TD-DFT)            ... B88
   X-Alpha parameter    XAlpha (TD-DFT) ...  0.666667
   Becke's b parameter  XBeta (TD-DFT)  ...  0.004200
Correlation functional (TD-DFT)         ... LYP
 LDA part of GGA corr.  LDAOpt (TD-DFT) ... VWN-5
Hybrid DFT                              ... on
   Exchange mixing (TD-DFT)             ...  0.200
   GGA exch. scaling (TD-DFT)           ...  0.720
   GGA corr. scaling (TD-DFT)           ...  0.810

Building densities             ... done
Calculating rho(r) on the grid ... done
Building xc-kernel on the grid ... done
                    *** TD-DFT CALCULATION INITIALIZED ***

-----------------------------
    LR-CPCM (equilibrium)
-----------------------------

Setting up LR-CPCM             ... done

------------------------
DAVIDSON-DIAGONALIZATION
------------------------

Dimension of the eigenvalue problem            ...  25000
Number of roots to be determined               ...      1
Maximum size of the expansion space            ...     10
Maximum number of iterations                   ...    100
Convergence tolerance for the residual         ...    2.500e-07
Convergence tolerance for the energies         ...    2.500e-07
Orthogonality tolerance                        ...    1.000e-14
Level Shift                                    ...    0.000e+00
Constructing the preconditioner                ... o.k.
Building the initial guess                     ... o.k.
Number of trial vectors determined             ...     10


                       ****Iteration    0****
   Time for iteration     :  TOTAL=22.1 TRAFO=0.0 RIJ=3.9 COSX=8.4 XC=1.5
   Size of expansion space: 3
   Lowest Energy          :     0.117770914441
   Maximum Energy change  :     0.117770914441 (vector 0)
   Maximum residual norm  :     0.010489106309

                       ****Iteration    1****
   Time for iteration     :  TOTAL=16.5 TRAFO=0.2 RIJ=2.5 COSX=6.8 XC=0.5
   Size of expansion space: 4
   Lowest Energy          :     0.107146071299
   Maximum Energy change  :     0.010624843141 (vector 0)
   Maximum residual norm  :     0.000215787243

                       ****Iteration    2****
   Time for iteration     :  TOTAL=17.9 TRAFO=1.3 RIJ=2.6 COSX=7.1 XC=0.5
   Size of expansion space: 5
   Lowest Energy          :     0.106888339352
   Maximum Energy change  :     0.000257731947 (vector 0)
   Maximum residual norm  :     0.000034406849

                       ****Iteration    3****
   Time for iteration     :  TOTAL=16.4 TRAFO=0.0 RIJ=2.6 COSX=6.8 XC=0.5
   Size of expansion space: 6
   Lowest Energy          :     0.106829991884
   Maximum Energy change  :     0.000058347468 (vector 0)
   Maximum residual norm  :     0.000004797541

                       ****Iteration    4****
   Time for iteration     :  TOTAL=17.0 TRAFO=0.0 RIJ=2.5 COSX=7.4 XC=0.5
   Size of expansion space: 7
   Lowest Energy          :     0.106824781698
   Maximum Energy change  :     0.000005210186 (vector 0)
   Maximum residual norm  :     0.000000691967

                       ****Iteration    5****
   Time for iteration     :  TOTAL=16.8 TRAFO=0.3 RIJ=2.5 COSX=7.0 XC=0.5
   Size of expansion space: 8
   Lowest Energy          :     0.106824000979
   Maximum Energy change  :     0.000000780719 (vector 0)
   Maximum residual norm  :     0.000000052295

      *** CONVERGENCE OF RESIDUAL NORM REACHED ***

Storing the converged CI vectors               ... HBQ-H.cis1

                 *** DAVIDSON DONE ***

Total time for solving the CIS problem:   107.693sec

------------------------------------
TD-DFT/TDA EXCITED STATES (SINGLETS)
------------------------------------

the weight of the individual excitations are printed if larger than 1.0e-02

STATE  1:  E=   0.106824 au      2.907 eV    23445.2 cm**-1 <S**2> =   0.000000 Mult 1
    67a ->  71a  :     0.013915 (c=  0.11796278)
    69a ->  70a  :     0.966231 (c= -0.98297068)


-----------------------------
TD-DFT/TDA-EXCITATION SPECTRA
-----------------------------

Center of mass = ( -2.5781,  2.1494,  0.9731)
Generating CIS transition densities           ... done

----------------------------------------------------------------------------------------------------
                     ABSORPTION SPECTRUM VIA TRANSITION ELECTRIC DIPOLE MOMENTS    
----------------------------------------------------------------------------------------------------
     Transition      Energy     Energy  Wavelength fosc(D2)      D2        DX        DY        DZ   
                      (eV)      (cm-1)    (nm)                 (au**2)    (au)      (au)      (au)  
----------------------------------------------------------------------------------------------------
  0-1A  ->  1-1A    2.906829   23445.2   426.5   0.254932431   3.57971  -1.66123  -0.89048  -0.16448

----------------------------------------------------------------------------------------------------
                     ABSORPTION SPECTRUM VIA TRANSITION VELOCITY DIPOLE MOMENTS    
----------------------------------------------------------------------------------------------------
     Transition      Energy     Energy  Wavelength fosc(P2)      P2        PX        PY        PZ   
                      (eV)      (cm-1)    (nm)                 (au**2)    (au)      (au)      (au)  
----------------------------------------------------------------------------------------------------
  0-1A  ->  1-1A    2.906829   23445.2   426.5   0.060559369   0.00970   0.08753   0.04316   0.01342

------------------------------------------------------------------------------------------
                     CD SPECTRUM VIA TRANSITION ELECTRIC DIPOLE MOMENTS    
------------------------------------------------------------------------------------------
     Transition      Energy     Energy  Wavelength    R        MX        MY        MZ   
                      (eV)      (cm-1)    (nm)   (1e40*cgs)   (au)      (au)      (au)  
------------------------------------------------------------------------------------------
  0-1A  ->  1-1A    2.906829   23445.2   426.5    1.10451   0.07035  -0.18858   0.32473

------------------------------------------------------------------------------------------
                     CD SPECTRUM VIA TRANSITION VELOCITY DIPOLE MOMENTS    
------------------------------------------------------------------------------------------
     Transition      Energy     Energy  Wavelength    R        MX        MY        MZ   
                      (eV)      (cm-1)    (nm)   (1e40*cgs)   (au)      (au)      (au)  
------------------------------------------------------------------------------------------
  0-1A  ->  1-1A    2.906829   23445.2   426.5   10.49511   0.07035  -0.18858   0.32473

Total run time:      109.081 sec

           *** ORCA-CIS/TD-DFT FINISHED WITHOUT ERROR ***
-----------------------
CIS/TD-DFT TOTAL ENERGY
-----------------------

    E(SCF)  =   -878.370294173 Eh
    DE(CIS) =      0.106824001 Eh (Root  1)
    ----------------------------- ---------
    E(tot)  =   -878.263470172 Eh


------------------------
TD-DFT GRADIENT XC SETUP
------------------------

Building densities                     ... done
Calculating rho(r) on the grid         ... done
Building xc-kernel on the grid         ... done
Building xc 3rd derivative on the grid ... done
                *** TD-DFT GRADIENT CALCULATION INITIALIZED ***

--------------------------
TD-DFT/TDA RELAXED DENSITY
--------------------------

Reference wavefunction             ... RHF
State of interest                  ... 1
Basis dimension                    ... 570
DFT-XC contribution needed         ... YES
RI-approximation                   ... YES
Do Coulomb                         ... YES
Do Exchange                        ... YES
Need Hartree-Fock Exchange         ... YES
facj, facx                         ...  2.000, -0.200
Conventional                       ... NO
Range separation                   ... NO
Triplet state                      ... NO
Spin Flip                          ... NO
CIS-vectors being read from        ... HBQ-H.cis
 => Number of Vectors found: 1
 => Orbital Window: 20...69 -> 70...569

Reading the CIS file                     ... done
Norm of the CI vector                    ... 1.000000000
Reading the CPCM file                    ... done
Making the CIS (pseudo)densities         ... done
Making operators G(D) and Q(T)           ... (SHARK-ok)done
Transforming the Fock operators          ... done
Making the frozen-core relaxed density   ... done
Constructing the G(H) operator           ... (SHARK-ok)done
Transforming the G(H) operator           ... done
Calculating the CIS Lagrangian           ... done
Solving the Z-vector equations           ... 

Using XC Grid                  ... (HBQ-H.grid_cpscf.tmp) 
Recalculating density on grid  ... (HBQ-H.grho_cpscf0.tmp) done
Calculating the xc-kernel      ... (HBQ-H.fxc_cpscf0.tmp) done

-------------------
SHARK CP-SCF DRIVER
-------------------

Dimension of the orbital basis          ...    570
Dimension of the CPSCF-problem          ...  35000
Number of operators                     ...      1
Max. number of iterations               ...    128
Convergence Tolerance                   ... 1.0e-04
Number of perturbations                 ...      1
Perturbation type                       ... REAL

----------------------------
POPLE LINEAR EQUATION SOLVER
----------------------------

  ITERATION   0:   ||err||_max =   1.6803e+00 (  16.3 sec)
  ITERATION   1:   ||err||_max =   8.9695e-02 (  17.2 sec)
  ITERATION   2:   ||err||_max =   1.8945e-02 (  16.8 sec)
  ITERATION   3:   ||err||_max =   6.3850e-03 (  16.5 sec)
  ITERATION   4:   ||err||_max =   2.3742e-03 (  16.5 sec)
  ITERATION   5:   ||err||_max =   1.0456e-03 (  16.6 sec)
  ITERATION   6:   ||err||_max =   3.0936e-04 (  16.5 sec)
  ITERATION   7:   ||err||_max =   1.3313e-04 (  17.2 sec)
  ITERATION   8:   ||err||_max =   3.4537e-05 (  16.5 sec)

Finalizing the relaxed density           ... done
Storing the relaxed density              ... done
Constructing the G(Z) operator           ... (SHARK-ok)done
Adding the CPCM contribution             ... done
Adding the XC terms                      ... done
Transforming the G(Z) operator           ... done
Making the W-matrix                      ... done
Finalizing the W-matrix                  ... done
Transforming the W-matrix                ... done
Nuc. rep. gradient        (SHARK) ... done (  0.0 sec)
HCore & Overlap gradient  (SHARK) ... done (  2.0 sec)
Split-RIJ-J gradient      (SHARK) ... done ( 11.6 sec)
COSX-gradient                     ... done (112.3 sec)
CPCM gradient                     ... done (  9.5 sec)
Dispersion correction             ... done (  0.0 sec)

-------------------
DISPERSION GRADIENT
-------------------

   1   C   :   -0.000564465   -0.000587613   -0.000115621
   2   C   :   -0.000487266   -0.000673448   -0.000244052
   3   C   :   -0.000233555   -0.000731491   -0.000383217
   4   C   :   -0.000443103   -0.000284315   -0.000052320
   5   C   :   -0.000007405   -0.000219322   -0.000069617
   6   O   :   -0.000239448    0.000057575    0.000097587
   7   C   :    0.000138345   -0.000568776   -0.000368870
   8   C   :    0.000577378   -0.000527088   -0.000461535
   9   C   :    0.000702993   -0.000377475   -0.000398233
  10   C   :    0.000262720    0.000258660    0.000110383
  11   C   :    0.000659560    0.000044614   -0.000127697
  12   N   :    0.000199721    0.000589387    0.000295083
  13   C   :    0.000202420    0.000703323    0.000367784
  14   C   :    0.000451914    0.000562923    0.000236298
  15   C   :    0.000744731    0.000357007    0.000041331
  16   C   :   -0.000583227    0.000239200   -0.000216060
  17   O   :   -0.000442161    0.000238254   -0.000493359
  18   N   :   -0.000382904    0.000287501    0.000256726
  19   C   :   -0.000470767    0.000297125    0.000038175
  20   C   :   -0.000079157    0.000114074    0.000688672
  21   H   :    0.000003359   -0.000027583    0.000446258
  22   H   :   -0.000008216   -0.000040303    0.000331597
  23   H   :    0.000067957    0.000161801    0.000334914
  24   H   :   -0.000239876    0.000132148   -0.000086731
  25   H   :   -0.000195737    0.000265021    0.000027332
  26   H   :   -0.000307070    0.000073226    0.000084634
  27   H   :   -0.000001072   -0.000334873   -0.000204928
  28   H   :   -0.000324203   -0.000234495   -0.000005717
  29   H   :   -0.000216524   -0.000257088   -0.000098223
  30   H   :    0.000214483   -0.000259206   -0.000212286
  31   H   :    0.000335078   -0.000139783   -0.000165018
  32   H   :   -0.000015120    0.000305278    0.000180437
  33   H   :    0.000210917    0.000231964    0.000091769
  34   H   :    0.000376301    0.000068537   -0.000049298
  35   H   :    0.000093396    0.000275241    0.000123801

Difference to translation invariance:
           :   -0.0000000000   -0.0000000000   -0.0000000000

Difference to rotation invariance:
           :    0.0000000000    0.0000000000    0.0000000000

Norm of the Dispersion gradient    ...    0.0034207273
RMS gradient                       ...    0.0003338288
MAX gradient                       ...    0.0007447311

                 ---------------------------
                 EXCITED STATE GRADIENT DONE
                 ---------------------------

------------------
CARTESIAN GRADIENT
------------------

   1   C   :    0.000044658   -0.000002550   -0.000020500
   2   C   :    0.000011976    0.000013087    0.000028856
   3   C   :   -0.000003200    0.000011467    0.000031104
   4   C   :   -0.000207333    0.000047429    0.000185993
   5   C   :    0.000085943   -0.000051708    0.000018328
   6   O   :    0.000317787   -0.000143655   -0.000313561
   7   C   :   -0.000035203    0.000032412    0.000028696
   8   C   :   -0.000045092    0.000040983    0.000041389
   9   C   :   -0.000035699    0.000003484    0.000012034
  10   C   :    0.000067848   -0.000023034   -0.000036558
  11   C   :   -0.000012583    0.000055148    0.000013748
  12   N   :   -0.000031390   -0.000116213   -0.000021217
  13   C   :   -0.000021176   -0.000019456   -0.000044028
  14   C   :   -0.000013246   -0.000008207   -0.000030697
  15   C   :   -0.000069790   -0.000028061   -0.000025124
  16   C   :   -0.000380245    0.000143395    0.000001762
  17   O   :    0.000110403   -0.000057785    0.000069648
  18   N   :    0.000040980   -0.000002928    0.000042346
  19   C   :    0.000023548    0.000022567    0.000017176
  20   C   :   -0.000048946   -0.000048226    0.000058996
  21   H   :   -0.000024133    0.000070642    0.000018694
  22   H   :    0.000018979   -0.000011102    0.000033479
  23   H   :   -0.000011373    0.000023028   -0.000008604
  24   H   :   -0.000008400   -0.000032073   -0.000000353
  25   H   :    0.000014700   -0.000000661   -0.000011115
  26   H   :    0.000020793   -0.000016089    0.000021483
  27   H   :    0.000013155    0.000002523    0.000021976
  28   H   :    0.000018891   -0.000026748    0.000010795
  29   H   :   -0.000006117   -0.000003943    0.000045756
  30   H   :    0.000017439   -0.000000557    0.000006083
  31   H   :   -0.000021431   -0.000017940   -0.000021734
  32   H   :   -0.000008619    0.000010572   -0.000020259
  33   H   :    0.000001344    0.000008128   -0.000033314
  34   H   :   -0.000007960    0.000010503   -0.000014542
  35   H   :    0.000067968    0.000074183   -0.000017123

Difference to translation invariance:
           :   -0.0001155251   -0.0000413872    0.0000896147

Difference to rotation invariance:
           :   -0.0014553308    0.0023316542    0.0006937572

Norm of the Cartesian gradient     ...    0.0007664547
RMS gradient                       ...    0.0000747983
MAX gradient                       ...    0.0003802452

------------------------------------------------------------------------------
                  RELAXED CIS/TDA DENSITY POPULATION ANALYSIS
                                   IROOT 1
------------------------------------------------------------------------------
------------------------------------------------------------------------------
                           ORCA POPULATION ANALYSIS
------------------------------------------------------------------------------
Input electron density              ... HBQ-H.cispre.singlet.iroot1
BaseName (.gbw .S,...)              ... HBQ-H

-------
TIMINGS
-------

Total TD-DFT gradient time  ....      475.727 sec

Fock matrix formation       ....     123.690 sec  ( 26.0%)
  Coulomb formation         ....     112.883 sec  ( 91.3% of F)
  XC integration            ....      10.807 sec  (  8.7% of F)
Z-vector equation           ....     151.057 sec  ( 31.8%)
Densities                   ....       0.000 sec  (  0.0%)
One electron gradient       ....       2.037 sec  (  0.4%)
Two electron gradient       ....       0.000 sec  (  0.0%)
RI-J Coulomb gradient       ....      11.593 sec  (  2.4%)
COSX gradient               ....      26.351 sec  (  5.5%)
XC gradient                 ....     112.328 sec  ( 23.6%)
CPCM gradient               ....       9.547 sec  (  2.0%)
   A-Matrix (El+Nuc)        ....       0.240 sec  (  0.1%)
   Potential                ....       9.307 sec  (  2.0%)

Maximum memory used throughout the entire CIS-calculation: 268.0 MB
=> NOW LEAVING ORCA_CIS


-------------------------------------------------------------------------------
                          DFT DISPERSION CORRECTION                            
                                                                               
                              DFTD3 V3.1  Rev 1                                
                          USING Becke-Johnson damping                          
-------------------------------------------------------------------------------
-------------------------   ----------------
Dispersion correction           -0.077336712
-------------------------   ----------------


-------------------------   --------------------
FINAL SINGLE POINT ENERGY      -878.340806883933
-------------------------   --------------------

------------------------------------------------------------------------------
                         ORCA GEOMETRY RELAXATION STEP
------------------------------------------------------------------------------

Reading the OPT-File                    .... done
Getting information on internals        .... done
Copying old internal coords+grads       .... done
Making the new internal coordinates     .... (2022 redundants) done
Validating the new internal coordinates .... (2022 redundants) done
Calculating the B-matrix                .... done
Calculating the G,G- and P matrices     .... done
Transforming gradient to internals      .... done
Projecting the internal gradient        .... done
Number of atoms                         ....  35
Number of internal coordinates          .... 181
Current Energy                          ....  -878.340806884 Eh
Current gradient norm                   ....     0.000766455 Eh/bohr
Maximum allowed component of the step   ....  0.300
Current trust radius                    ....  0.300
Updating the Hessian (BFGS)             .... done
Forming the augmented Hessian           .... done
Diagonalizing the augmented Hessian     .... done
Last element of RFO vector              ....  0.999634470
Lowest eigenvalues of augmented Hessian:
 -0.000005188  0.006042240  0.015709447  0.017256500  0.020036278
Length of the computed step             ....  0.027045545
The final length of the internal step   ....  0.027045545
Converting the step to Cartesian space:
 Initial RMS(Int)=    0.0020102795
Transforming coordinates:
 Iter   0:  RMS(Cart)=    0.0100478803 RMS(Int)=    0.4669703919
done
Storing new coordinates                 .... done
The predicted energy change is          ....    -0.000002596
Previously predicted energy change      ....    -0.000001779
Actually observed energy change         ....    -0.000004558
Ratio of predicted to observed change   ....     2.562960852
New trust radius                        ....     0.200000000

                                .--------------------.
          ----------------------|Geometry convergence|-------------------------
          Item                value                   Tolerance       Converged
          ---------------------------------------------------------------------
          Energy change      -0.0000045584            0.0000050000      YES
          RMS gradient        0.0000434144            0.0001000000      YES
          MAX gradient        0.0002349340            0.0003000000      YES
          RMS step            0.0020102795            0.0020000000      NO
          MAX step            0.0126724617            0.0040000000      NO
          ........................................................
          Max(Bonds)      0.0010      Max(Angles)    0.08
          Max(Dihed)        0.73      Max(Improp)    0.00
          ---------------------------------------------------------------------

The optimization has not yet converged - more geometry cycles are needed


    ---------------------------------------------------------------------------
                         Redundant Internal Coordinates
                            (Angstroem and degrees)

        Definition                    Value    dE/dq     Step     New-Value
    ----------------------------------------------------------------------------
     1. B(C   1,C   0)                1.3883 -0.000044  0.0000    1.3883   
     2. B(C   2,C   1)                1.3772 -0.000032 -0.0001    1.3771   
     3. B(C   3,C   0)                1.4085 -0.000036 -0.0001    1.4085   
     4. B(C   4,C   3)                1.4190  0.000060  0.0000    1.4190   
     5. B(O   5,C   3)                1.3517 -0.000155  0.0004    1.3521   
     6. B(C   6,C   4)                1.4281 -0.000091  0.0001    1.4283   
     7. B(C   6,C   2)                1.4302 -0.000068 -0.0002    1.4300   
     8. B(C   7,C   6)                1.3987 -0.000047 -0.0001    1.3986   
     9. B(C   8,C   7)                1.3808 -0.000069  0.0001    1.3809   
    10. B(C   9,C   4)                1.4279 -0.000054  0.0000    1.4280   
    11. B(C  10,C   9)                1.4054 -0.000069  0.0001    1.4055   
    12. B(C  10,C   8)                1.4157 -0.000057 -0.0002    1.4155   
    13. B(N  11,C   9)                1.3870 -0.000081 -0.0002    1.3868   
    14. B(C  12,N  11)                1.3737 -0.000039 -0.0001    1.3736   
    15. B(C  13,C  12)                1.3665 -0.000022 -0.0000    1.3665   
    16. B(C  14,C  13)                1.4004 -0.000045  0.0000    1.4004   
    17. B(C  14,C  10)                1.4206 -0.000078  0.0001    1.4207   
    18. B(C  15,O   5)                1.4200  0.000235 -0.0010    1.4189   
    19. B(O  16,C  15)                1.2120 -0.000103  0.0002    1.2123   
    20. B(N  17,C  15)                1.3305  0.000078  0.0002    1.3307   
    21. B(C  18,N  17)                1.4601 -0.000057 -0.0001    1.4600   
    22. B(C  19,N  17)                1.4615  0.000031  0.0001    1.4616   
    23. B(H  20,C  19)                1.0832 -0.000064  0.0001    1.0833   
    24. B(H  21,C  19)                1.0901  0.000015 -0.0001    1.0901   
    25. B(H  22,C  19)                1.0917  0.000004  0.0000    1.0918   
    26. B(H  23,C  18)                1.0844  0.000011 -0.0000    1.0844   
    27. B(H  24,C  18)                1.0913 -0.000000  0.0000    1.0914   
    28. B(H  25,C  18)                1.0908 -0.000002  0.0000    1.0909   
    29. B(H  26,C   2)                1.0816 -0.000006  0.0000    1.0816   
    30. B(H  27,C   0)                1.0792 -0.000024 -0.0000    1.0792   
    31. B(H  28,C   1)                1.0802 -0.000010  0.0000    1.0802   
    32. B(H  29,C   7)                1.0813  0.000001 -0.0000    1.0813   
    33. B(H  30,C   8)                1.0823 -0.000007  0.0000    1.0824   
    34. B(H  31,C  12)                1.0787  0.000002  0.0000    1.0787   
    35. B(H  32,C  13)                1.0804  0.000002  0.0000    1.0804   
    36. B(H  33,C  14)                1.0795 -0.000003  0.0000    1.0795   
    37. B(H  34,O   5)                1.9488  0.000026 -0.0003    1.9485   
    38. B(H  34,N  11)                1.0051 -0.000045  0.0001    1.0052   
    39. A(C   1,C   0,H  27)          120.28 -0.000026    0.03    120.31   
    40. A(C   1,C   0,C   3)          121.13  0.000017   -0.03    121.10   
    41. A(C   3,C   0,H  27)          118.57  0.000008    0.00    118.58   
    42. A(C   0,C   1,H  28)          120.20 -0.000018   -0.00    120.19   
    43. A(C   0,C   1,C   2)          118.74  0.000004    0.02    118.76   
    44. A(C   2,C   1,H  28)          121.06  0.000013   -0.02    121.04   
    45. A(C   1,C   2,C   6)          121.37 -0.000005    0.01    121.38   
    46. A(C   1,C   2,H  26)          120.79  0.000026   -0.02    120.78   
    47. A(C   6,C   2,H  26)          117.83 -0.000021    0.01    117.84   
    48. A(C   4,C   3,O   5)          118.48 -0.000006    0.02    118.51   
    49. A(C   0,C   3,C   4)          122.14 -0.000046    0.02    122.16   
    50. A(C   0,C   3,O   5)          119.26  0.000052   -0.04    119.21   
    51. A(C   3,C   4,C   9)          125.79  0.000023   -0.01    125.78   
    52. A(C   6,C   4,C   9)          118.51 -0.000029    0.01    118.52   
    53. A(C   3,C   4,C   6)          115.69  0.000006    0.00    115.70   
    54. A(C   3,O   5,C  15)          120.23  0.000030   -0.01    120.23   
    55. A(C   2,C   6,C   7)          118.87 -0.000024    0.01    118.88   
    56. A(C   4,C   6,C   7)          120.21  0.000001    0.01    120.22   
    57. A(C   2,C   6,C   4)          120.92  0.000023   -0.02    120.90   
    58. A(C   8,C   7,H  29)          120.39 -0.000037    0.04    120.43   
    59. A(C   6,C   7,H  29)          119.38  0.000017   -0.02    119.36   
    60. A(C   6,C   7,C   8)          120.23  0.000020   -0.02    120.21   
    61. A(C   7,C   8,H  30)          119.91 -0.000018    0.02    119.93   
    62. A(C  10,C   8,H  30)          118.36  0.000029   -0.03    118.33   
    63. A(C   7,C   8,C  10)          121.73 -0.000011    0.01    121.74   
    64. A(C  10,C   9,N  11)          117.06 -0.000001    0.00    117.07   
    65. A(C   4,C   9,C  10)          120.79  0.000043   -0.02    120.77   
    66. A(C   4,C   9,N  11)          122.15 -0.000042    0.02    122.17   
    67. A(C   8,C  10,C  14)          120.63  0.000002   -0.01    120.61   
    68. A(C   9,C  10,C  14)          120.84  0.000022   -0.00    120.84   
    69. A(C   8,C  10,C   9)          118.53 -0.000024    0.01    118.55   
    70. A(C   9,N  11,H  34)          118.78  0.000052   -0.08    118.70   
    71. A(C   9,N  11,C  12)          122.57 -0.000003    0.00    122.57   
    72. A(C  12,N  11,H  34)          118.65 -0.000049    0.08    118.73   
    73. A(N  11,C  12,H  31)          115.39 -0.000005   -0.00    115.38   
    74. A(C  13,C  12,H  31)          123.82  0.000003    0.00    123.82   
    75. A(N  11,C  12,C  13)          120.80  0.000003    0.00    120.80   
    76. A(C  12,C  13,H  32)          119.05  0.000018   -0.01    119.04   
    77. A(C  12,C  13,C  14)          119.74 -0.000017    0.01    119.74   
    78. A(C  14,C  13,H  32)          121.21 -0.000001    0.00    121.21   
    79. A(C  10,C  14,H  33)          119.37  0.000010   -0.00    119.36   
    80. A(C  10,C  14,C  13)          118.99 -0.000004   -0.01    118.98   
    81. A(C  13,C  14,H  33)          121.64 -0.000006    0.01    121.65   
    82. A(O  16,C  15,N  17)          128.82  0.000029   -0.06    128.77   
    83. A(O   5,C  15,N  17)          110.71  0.000164    0.01    110.72   
    84. A(O   5,C  15,O  16)          120.42 -0.000192    0.05    120.46   
    85. A(C  18,N  17,C  19)          115.72 -0.000090    0.02    115.74   
    86. A(C  15,N  17,C  19)          125.25  0.000194   -0.03    125.22   
    87. A(C  15,N  17,C  18)          118.96 -0.000104    0.01    118.97   
    88. A(H  24,C  18,H  25)          108.95  0.000021   -0.00    108.95   
    89. A(H  23,C  18,H  25)          109.71  0.000019    0.00    109.72   
    90. A(N  17,C  18,H  25)          109.38 -0.000031    0.02    109.40   
    91. A(H  23,C  18,H  24)          109.71  0.000016   -0.00    109.70   
    92. A(N  17,C  18,H  24)          109.33 -0.000013   -0.00    109.33   
    93. A(N  17,C  18,H  23)          109.74 -0.000012   -0.01    109.72   
    94. A(H  21,C  19,H  22)          108.87 -0.000005    0.01    108.89   
    95. A(H  20,C  19,H  22)          109.64 -0.000001   -0.00    109.64   
    96. A(N  17,C  19,H  22)          109.86 -0.000036   -0.01    109.86   
    97. A(H  20,C  19,H  21)          109.07 -0.000021    0.01    109.08   
    98. A(N  17,C  19,H  21)          108.43  0.000033   -0.01    108.42   
    99. A(N  17,C  19,H  20)          110.92  0.000029   -0.00    110.92   
   100. D(H  28,C   1,C   0,H  27)      1.31 -0.000002    0.03      1.34   
   101. D(C   2,C   1,C   0,C   3)      0.63  0.000000    0.03      0.66   
   102. D(H  28,C   1,C   0,C   3)    179.75 -0.000001   -0.00    179.75   
   103. D(C   2,C   1,C   0,H  27)   -177.81  0.000000    0.06   -177.75   
   104. D(C   6,C   2,C   1,C   0)      0.14  0.000004   -0.04      0.10   
   105. D(C   6,C   2,C   1,H  28)   -178.97  0.000005   -0.01   -178.98   
   106. D(H  26,C   2,C   1,H  28)      0.50  0.000003    0.00      0.50   
   107. D(H  26,C   2,C   1,C   0)    179.61  0.000001   -0.03    179.58   
   108. D(O   5,C   3,C   0,H  27)      1.27 -0.000002    0.03      1.30   
   109. D(O   5,C   3,C   0,C   1)   -177.19 -0.000002    0.06   -177.13   
   110. D(C   4,C   3,C   0,H  27)    177.21 -0.000005   -0.01    177.20   
   111. D(C   4,C   3,C   0,C   1)     -1.25 -0.000005    0.02     -1.23   
   112. D(C   6,C   4,C   3,O   5)    176.98  0.000005   -0.09    176.89   
   113. D(C   6,C   4,C   3,C   0)      1.01  0.000006   -0.06      0.95   
   114. D(C   9,C   4,C   3,O   5)     -3.52  0.000001   -0.11     -3.62   
   115. D(C   9,C   4,C   3,C   0)   -179.49  0.000002   -0.07   -179.56   
   116. D(C  15,O   5,C   3,C   4)    144.56  0.000072   -0.50    144.06   
   117. D(C  15,O   5,C   3,C   0)    -39.35  0.000068   -0.53    -39.89   
   118. D(C   7,C   6,C   4,C   9)     -0.28  0.000002    0.03     -0.26   
   119. D(C   7,C   6,C   4,C   3)    179.26 -0.000002    0.01    179.27   
   120. D(C   2,C   6,C   4,C   9)   -179.78  0.000001    0.06   -179.72   
   121. D(C   2,C   6,C   4,C   3)     -0.24 -0.000003    0.04     -0.19   
   122. D(C   7,C   6,C   2,H  26)      0.68 -0.000002    0.02      0.71   
   123. D(C   7,C   6,C   2,C   1)   -179.83 -0.000003    0.04   -179.80   
   124. D(C   4,C   6,C   2,H  26)   -179.81 -0.000000   -0.01   -179.82   
   125. D(C   4,C   6,C   2,C   1)     -0.33 -0.000002    0.00     -0.33   
   126. D(H  29,C   7,C   6,C   4)   -179.65  0.000000   -0.03   -179.68   
   127. D(H  29,C   7,C   6,C   2)     -0.14  0.000001   -0.07     -0.21   
   128. D(C   8,C   7,C   6,C   4)      0.44  0.000001   -0.04      0.40   
   129. D(C   8,C   7,C   6,C   2)    179.95  0.000002   -0.07    179.88   
   130. D(C  10,C   8,C   7,C   6)     -0.42 -0.000002    0.01     -0.41   
   131. D(H  30,C   8,C   7,H  29)     -0.33  0.000002    0.01     -0.33   
   132. D(H  30,C   8,C   7,C   6)    179.58  0.000002    0.01    179.58   
   133. D(C  10,C   8,C   7,H  29)    179.67 -0.000002    0.01    179.68   
   134. D(N  11,C   9,C   4,C   6)    179.83 -0.000006   -0.00    179.83   
   135. D(N  11,C   9,C   4,C   3)      0.34 -0.000002    0.01      0.36   
   136. D(C  10,C   9,C   4,C   6)      0.11 -0.000003    0.01      0.12   
   137. D(C  10,C   9,C   4,C   3)   -179.39  0.000001    0.02   -179.36   
   138. D(C  14,C  10,C   9,N  11)      0.12  0.000005   -0.02      0.10   
   139. D(C  14,C  10,C   9,C   4)    179.86  0.000001   -0.03    179.83   
   140. D(C   8,C  10,C   9,N  11)   -179.82  0.000005   -0.03   -179.85   
   141. D(C   8,C  10,C   9,C   4)     -0.08  0.000002   -0.04     -0.12   
   142. D(C  14,C  10,C   8,H  30)      0.30 -0.000003    0.03      0.32   
   143. D(C  14,C  10,C   8,C   7)   -179.71  0.000001    0.02   -179.68   
   144. D(C   9,C  10,C   8,H  30)   -179.76 -0.000003    0.03   -179.73   
   145. D(C   9,C  10,C   8,C   7)      0.24  0.000001    0.03      0.26   
   146. D(H  34,N  11,C   9,C  10)   -179.78 -0.000016    0.10   -179.68   
   147. D(H  34,N  11,C   9,C   4)      0.48 -0.000013    0.11      0.59   
   148. D(C  12,N  11,C   9,C  10)     -0.17  0.000000   -0.02     -0.20   
   149. D(C  12,N  11,C   9,C   4)   -179.91  0.000003   -0.01   -179.92   
   150. D(H  31,C  12,N  11,H  34)     -0.46  0.000011   -0.06     -0.53   
   151. D(H  31,C  12,N  11,C   9)    179.92 -0.000005    0.06    179.98   
   152. D(C  13,C  12,N  11,H  34)    179.67  0.000011   -0.07    179.60   
   153. D(C  13,C  12,N  11,C   9)      0.06 -0.000005    0.05      0.11   
   154. D(H  32,C  13,C  12,H  31)      0.03  0.000002   -0.03      0.00   
   155. D(H  32,C  13,C  12,N  11)    179.88  0.000002   -0.02    179.86   
   156. D(C  14,C  13,C  12,H  31)   -179.75  0.000005   -0.04   -179.78   
   157. D(C  14,C  13,C  12,N  11)      0.11  0.000005   -0.03      0.08   
   158. D(C  10,C  14,C  13,C  12)     -0.15 -0.000001   -0.02     -0.17   
   159. D(H  33,C  14,C  10,C   9)   -179.61 -0.000003    0.03   -179.58   
   160. D(H  33,C  14,C  10,C   8)      0.33 -0.000004    0.04      0.37   
   161. D(C  13,C  14,C  10,C   9)      0.04 -0.000004    0.04      0.08   
   162. D(C  13,C  14,C  10,C   8)    179.98 -0.000005    0.05    180.02   
   163. D(H  33,C  14,C  13,H  32)     -0.28  0.000001   -0.02     -0.30   
   164. D(H  33,C  14,C  13,C  12)    179.49 -0.000002   -0.01    179.48   
   165. D(C  10,C  14,C  13,H  32)   -179.92  0.000002   -0.03   -179.95   
   166. D(N  17,C  15,O   5,C   3)    155.78 -0.000084    0.73    156.51   
   167. D(O  16,C  15,O   5,C   3)    -26.56 -0.000049    0.68    -25.88   
   168. D(C  19,N  17,C  15,O  16)    178.41 -0.000028    0.04    178.45   
   169. D(C  19,N  17,C  15,O   5)     -4.19  0.000005   -0.01     -4.20   
   170. D(C  18,N  17,C  15,O  16)     -4.55 -0.000021    0.01     -4.55   
   171. D(C  18,N  17,C  15,O   5)    172.85  0.000011   -0.05    172.81   
   172. D(H  25,C  18,N  17,C  15)    121.02  0.000007   -0.17    120.85   
   173. D(H  24,C  18,N  17,C  19)     57.57  0.000021   -0.20     57.37   
   174. D(H  24,C  18,N  17,C  15)   -119.75  0.000007   -0.16   -119.91   
   175. D(H  23,C  18,N  17,C  19)    177.93  0.000025   -0.22    177.72   
   176. D(H  23,C  18,N  17,C  15)      0.62  0.000011   -0.18      0.44   
   177. D(H  22,C  19,N  17,C  15)    107.82  0.000022   -0.35    107.47   
   178. D(H  21,C  19,N  17,C  18)     49.57  0.000010   -0.30     49.26   
   179. D(H  21,C  19,N  17,C  15)   -133.31  0.000016   -0.34   -133.65   
   180. D(H  20,C  19,N  17,C  18)    169.31  0.000023   -0.30    169.01   
   181. D(H  20,C  19,N  17,C  15)    -13.56  0.000029   -0.34    -13.90   
    ----------------------------------------------------------------------------

Geometry step timings:
Preparation and reading OPT file:      0.002 s ( 5.678 %)
Internal coordinates            :      0.000 s ( 0.073 %)
B/P matrices and projection     :      0.002 s ( 6.709 %)
Hessian update/contruction      :      0.020 s (60.159 %)
Making the step                 :      0.002 s ( 4.637 %)
Converting the step to Cartesian:      0.000 s ( 0.505 %)
Storing new data                :      0.002 s ( 6.921 %)
Checking convergence            :      0.000 s ( 0.054 %)
Final printing                  :      0.005 s (15.255 %)
Total time                      :      0.033 s

Time for energy+gradient        :    809.013 s
Time for complete geometry iter :    809.206 s

         *************************************************************
         *                GEOMETRY OPTIMIZATION CYCLE   5            *
         *************************************************************
---------------------------------
CARTESIAN COORDINATES (ANGSTROEM)
---------------------------------
  C     -3.076642   -0.657912   -0.042532
  C     -2.660494   -1.734643   -0.813759
  C     -1.335941   -1.812907   -1.182477
  C     -2.172798    0.348633    0.349478
  C     -0.797300    0.305069    0.003481
  O     -2.605711    1.349345    1.149003
  C     -0.392380   -0.814311   -0.785838
  C      0.939285   -0.943422   -1.193243
  C      1.872830    0.006314   -0.827856
  C      0.185903    1.275191    0.365840
  C      1.521994    1.133523   -0.046818
  N     -0.124417    2.392218    1.126801
  C      0.814296    3.331206    1.478781
  C      2.116088    3.201318    1.083979
  C      2.500709    2.099579    0.309794
  C     -3.889639    1.919212    0.948545
  O     -4.412423    1.887111   -0.144726
  N     -4.333227    2.485731    2.067929
  C     -5.567061    3.265082    2.025319
  C     -3.649534    2.449566    3.359235
  H     -2.861537    1.706201    3.359025
  H     -4.379135    2.195278    4.128195
  H     -3.227710    3.431324    3.583146
  H     -5.969129    3.259000    1.018261
  H     -5.356832    4.291344    2.331387
  H     -6.293424    2.831746    2.714255
  H     -0.975030   -2.641026   -1.777314
  H     -4.100780   -0.590453    0.290963
  H     -3.365316   -2.500570   -1.102724
  H      1.229578   -1.793730   -1.794796
  H      2.903585   -0.101562   -1.139964
  H      0.446055    4.153369    2.072087
  H      2.830444    3.957862    1.374996
  H      3.518608    1.970685   -0.025835
  H     -1.071845    2.515408    1.439194

----------------------------
CARTESIAN COORDINATES (A.U.)
----------------------------
  NO LB      ZA    FRAG     MASS         X           Y           Z
   0 C     6.0000    0    12.011   -5.814011   -1.243274   -0.080374
   1 C     6.0000    0    12.011   -5.027604   -3.278000   -1.537782
   2 C     6.0000    0    12.011   -2.524563   -3.425898   -2.234558
   3 C     6.0000    0    12.011   -4.105994    0.658821    0.660418
   4 C     6.0000    0    12.011   -1.506679    0.576497    0.006578
   5 O     8.0000    0    15.999   -4.924081    2.549893    2.171300
   6 C     6.0000    0    12.011   -0.741491   -1.538824   -1.485018
   7 C     6.0000    0    12.011    1.774991   -1.782810   -2.254903
   8 C     6.0000    0    12.011    3.539135    0.011932   -1.564420
   9 C     6.0000    0    12.011    0.351306    2.409762    0.691337
  10 C     6.0000    0    12.011    2.876151    2.142048   -0.088474
  11 N     7.0000    0    14.007   -0.235113    4.520638    2.129345
  12 C     6.0000    0    12.011    1.538797    6.295068    2.794491
  13 C     6.0000    0    12.011    3.998826    6.049615    2.048423
  14 C     6.0000    0    12.011    4.725654    3.967629    0.585425
  15 C     6.0000    0    12.011   -7.350353    3.626785    1.792491
  16 O     8.0000    0    15.999   -8.338271    3.566124   -0.273493
  17 N     7.0000    0    14.007   -8.188613    4.697351    3.907820
  18 C     6.0000    0    12.011  -10.520221    6.170110    3.827298
  19 C     6.0000    0    12.011   -6.896619    4.629008    6.348035
  20 H     1.0000    0     1.008   -5.407522    3.224252    6.347638
  21 H     1.0000    0     1.008   -8.275365    4.148474    7.801158
  22 H     1.0000    0     1.008   -6.099488    6.484263    6.771165
  23 H     1.0000    0     1.008  -11.280019    6.158617    1.924235
  24 H     1.0000    0     1.008  -10.122945    8.109464    4.405682
  25 H     1.0000    0     1.008  -11.892848    5.351225    5.129199
  26 H     1.0000    0     1.008   -1.842539   -4.990816   -3.358637
  27 H     1.0000    0     1.008   -7.749351   -1.115795    0.549841
  28 H     1.0000    0     1.008   -6.359525   -4.725393   -2.083847
  29 H     1.0000    0     1.008    2.323566   -3.389658   -3.391673
  30 H     1.0000    0     1.008    5.486980   -0.191924   -2.154220
  31 H     1.0000    0     1.008    0.842922    7.848730    3.915677
  32 H     1.0000    0     1.008    5.348764    7.479274    2.598365
  33 H     1.0000    0     1.008    6.649205    3.724055   -0.048821
  34 H     1.0000    0     1.008   -2.025493    4.753432    2.719683

--------------------------------
INTERNAL COORDINATES (ANGSTROEM)
--------------------------------
 C      0   0   0     0.000000000000     0.00000000     0.00000000
 C      1   0   0     1.388279199243     0.00000000     0.00000000
 C      2   1   0     1.377141317468   118.75904030     0.00000000
 C      1   2   3     1.408452768297   121.09939308     0.65704780
 C      4   1   2     1.419016192575   122.15720771   358.77493830
 O      4   1   2     1.352064433143   119.21233003   182.86753271
 C      5   4   1     1.428283879643   115.69721128     0.95109925
 C      7   5   4     1.398563818674   120.21692426   179.27203337
 C      8   7   5     1.380946888396   120.20626029     0.40484327
 C      5   4   1     1.427980886299   125.78050493   180.44117807
 C     10   5   4     1.405522733847   120.76617893   180.63899962
 N     10   5   4     1.386762509418   122.16743365     0.35650814
 C     12  10   5     1.373597453228   122.56922051   180.07571652
 C     13  12  10     1.366528612756   120.79812842     0.11253445
 C     14  13  12     1.400401967556   119.74463497     0.07595996
 C      6   4   1     1.418944084202   120.22715061   320.11398961
 O     16   6   4     1.212260573563   120.46312903   334.11545883
 N     16   6   4     1.330689611575   110.71832303   156.50706729
 C     18  16   6     1.459982464970   118.97482145   172.80719738
 C     18  16   6     1.461580079639   125.22135178   355.80494828
 H     20  18  16     1.083296012325   110.92050193   346.09798198
 H     20  18  16     1.090081799582   108.41629481   226.35088940
 H     20  18  16     1.091751483591   109.85771491   107.46957710
 H     19  18  16     1.084370903212   109.72229130     0.43623283
 H     19  18  16     1.091369419473   109.32869893   240.08543542
 H     19  18  16     1.090878604507   109.40434309   120.85298261
 H      3   2   1     1.081604532139   120.77700126   179.58035669
 H      1   2   3     1.079178998224   120.30641758   182.25446633
 H      2   1   3     1.080240699974   120.19457968   179.08798171
 H      8   7   5     1.081276256421   119.35970002   180.31538029
 H      9   8   7     1.082360741021   119.93009443   179.58399759
 H     13  12  10     1.078687072817   115.38351344   179.98433541
 H     14  13  12     1.080441354303   119.04366405   179.86247529
 H     15  14  13     1.079527118671   121.65358934   179.47929629
 H     12  10   5     1.005179476964   118.69652983     0.58873194

---------------------------
INTERNAL COORDINATES (A.U.)
---------------------------
 C      0   0   0     0.000000000000     0.00000000     0.00000000
 C      1   0   0     2.623467483989     0.00000000     0.00000000
 C      2   1   0     2.602419937722   118.75904030     0.00000000
 C      1   2   3     2.661590004644   121.09939308     0.65704780
 C      4   1   2     2.681551983567   122.15720771   358.77493830
 O      4   1   2     2.555031494056   119.21233003   182.86753271
 C      5   4   1     2.699065374019   115.69721128     0.95109925
 C      7   5   4     2.642902598105   120.21692426   179.27203337
 C      8   7   5     2.609611424558   120.20626029     0.40484327
 C      5   4   1     2.698492799580   125.78050493   180.44117807
 C     10   5   4     2.656053041971   120.76617893   180.63899962
 N     10   5   4     2.620601355590   122.16743365     0.35650814
 C     12  10   5     2.595723004852   122.56922051   180.07571652
 C     13  12  10     2.582364832277   120.79812842     0.11253445
 C     14  13  12     2.646376196086   119.74463497     0.07595996
 C      6   4   1     2.681415718489   120.22715061   320.11398961
 O     16   6   4     2.290840486984   120.46312903   334.11545883
 N     16   6   4     2.514638935130   110.71832303   156.50706729
 C     18  16   6     2.758967019120   118.97482145   172.80719738
 C     18  16   6     2.761986073313   125.22135178   355.80494828
 H     20  18  16     2.047132785263   110.92050193   346.09798198
 H     20  18  16     2.059956064783   108.41629481   226.35088940
 H     20  18  16     2.063111310290   109.85771491   107.46957710
 H     19  18  16     2.049164034664   109.72229130     0.43623283
 H     19  18  16     2.062389313740   109.32869893   240.08543542
 H     19  18  16     2.061461807873   109.40434309   120.85298261
 H      3   2   1     2.043936350952   120.77700126   179.58035669
 H      1   2   3     2.039352756122   120.30641758   182.25446633
 H      2   1   3     2.041359081666   120.19457968   179.08798171
 H      8   7   5     2.043315999746   119.35970002   180.31538029
 H      9   8   7     2.045365378637   119.93009443   179.58399759
 H     13  12  10     2.038423151825   115.38351344   179.98433541
 H     14  13  12     2.041738263396   119.04366405   179.86247529
 H     15  14  13     2.040010608430   121.65358934   179.47929629
 H     12  10   5     1.899513926899   118.69652983     0.58873194

------------------------------------------------------------------------------
                   ___                                                        
                  /   \      - P O W E R E D   B Y -                         
                 /     \                                                     
                 |  |  |   _    _      __       _____    __    __             
                 |  |  |  | |  | |    /  \     |  _  \  |  |  /  |          
                  \  \/   | |  | |   /    \    | | | |  |  | /  /          
                 / \  \   | |__| |  /  /\  \   | |_| |  |  |/  /          
                |  |  |   |  __  | /  /__\  \  |    /   |      \           
                |  |  |   | |  | | |   __   |  |    \   |  |\   \          
                \     /   | |  | | |  |  |  |  | |\  \  |  | \   \       
                 \___/    |_|  |_| |__|  |__|  |_| \__\ |__|  \__/        
                                                                              
                      - O R C A' S   B I G   F R I E N D -                    
                                      &                                       
                       - I N T E G R A L  F E E D E R -                       
                                                                              
 v1 FN, 2020, v2 2021, v3 2022-2024                                           
------------------------------------------------------------------------------


----------------------
SHARK INTEGRAL PACKAGE
----------------------

Number of atoms                             ...     35
Number of basis functions                   ...    570
Number of shells                            ...    260
Maximum angular momentum                    ...      2
Integral batch strategy                     ... SHARK/LIBINT Hybrid
RI-J (if used) integral strategy            ... SPLIT-RIJ (Revised 2003 algorithm where possible)
Printlevel                                  ...      1
Contraction scheme used                     ... SEGMENTED contraction
Prescreening option                         ... SCHWARTZ
   Thresh                                   ... 2.500e-11
   Tcut                                     ... 2.500e-12
   Tpresel                                  ... 2.500e-12 
Coulomb Range Separation                    ... NOT USED
Exchange Range Separation                   ... NOT USED
Multipole approximations                    ... NOT USED
Finite Nucleus Model                        ... NOT USED
CABS basis                                  ... NOT available
Auxiliary Coulomb fitting basis             ... AVAILABLE
   # of basis functions in Aux-J            ...   1145
   # of shells in Aux-J                     ...    375
   Maximum angular momentum in Aux-J        ...      4
Auxiliary J/K fitting basis                 ... NOT available
Auxiliary Correlation fitting basis         ... AVAILABLE
   # of basis functions in Aux-C            ...   1745
   # of shells in Aux-C                     ...    545
   Maximum angular momentum in Aux-C        ...      4
Auxiliary 'external' fitting basis          ... NOT available

Checking pre-screening integrals            ... done (  0.0 sec) Dimension = 260
Check shell pair data                       ... done (  0.0 sec)
Shell pair information
Shell pair cut-off parameter TPreSel        ...   2.5e-12
Total number of shell pairs                 ...     33930
Shell pairs after pre-screening             ...     25287
Total number of primitive shell pairs       ...    111170
Primitive shell pairs kept                  ...     55006
          la=0 lb=0:   7469 shell pairs
          la=1 lb=0:   8326 shell pairs
          la=1 lb=1:   2326 shell pairs
          la=2 lb=0:   4205 shell pairs
          la=2 lb=1:   2346 shell pairs
          la=2 lb=2:    615 shell pairs

Calculating one electron integrals          ... done (  0.1 sec)
Calculating RI/J V-Matrix + Cholesky decomp.... done (  0.2 sec)
Calculating RI/C V-Matrix + Cholesky decomp.... done (  0.6 sec)
Calculating Nuclear repulsion               ... done (  0.0 sec) ENN=   1507.140041748025 Eh

Diagonalization of the overlap matrix:
Smallest eigenvalue                        ... 3.486e-06
Time for diagonalization                   ...    0.029 sec
Threshold for overlap eigenvalues          ... 1.000e-07
Number of eigenvalues below threshold      ... 0
Time for construction of square roots      ...    0.051 sec
Total time needed                          ...    0.095 sec

-------------------
DFT GRID GENERATION
-------------------

General Integration Accuracy     IntAcc      ... 4.388
Radial Grid Type                 RadialGrid  ... OptM3 with GC (2021)
Angular Grid (max. ang.)         AngularGrid ... 4 (Lebedev-302)
Angular grid pruning method      GridPruning ... 4 (adaptive)
Weight generation scheme         WeightScheme... mBecke (2022)
Basis function cutoff            BFCut       ... 1.0000e-11
Integration weight cutoff        WCut        ... 1.0000e-14
Partially contracted basis set               ... off
Rotationally invariant grid construction     ... off
Angular grids for H and He will be reduced by one unit

Total number of grid points                  ...   167571
Total number of batches                      ...     2639
Average number of points per batch           ...       63
Average number of grid points per atom       ...     4788

--------------------
COSX GRID GENERATION
--------------------

GRIDX 1
-------
General Integration Accuracy     IntAcc      ... 3.816
Radial Grid Type                 RadialGrid  ... OptM3 with GC (2021)
Angular Grid (max. ang.)         AngularGrid ... 1 (Lebedev-50)
Angular grid pruning method      GridPruning ... 4 (adaptive)
Weight generation scheme         WeightScheme... mBecke (2022)
Basis function cutoff            BFCut       ... 1.0000e-11
Integration weight cutoff        WCut        ... 1.0000e-14
Partially contracted basis set               ... on
Rotationally invariant grid construction     ... off
Angular grids for H and He will be reduced by one unit

Total number of grid points                  ...    21315
Total number of batches                      ...      185
Average number of points per batch           ...      115
Average number of grid points per atom       ...      609
UseSFitting                                  ... on

GRIDX 2
-------
General Integration Accuracy     IntAcc      ... 4.020
Radial Grid Type                 RadialGrid  ... OptM3 with GC (2021)
Angular Grid (max. ang.)         AngularGrid ... 2 (Lebedev-110)
Angular grid pruning method      GridPruning ... 4 (adaptive)
Weight generation scheme         WeightScheme... mBecke (2022)
Basis function cutoff            BFCut       ... 1.0000e-11
Integration weight cutoff        WCut        ... 1.0000e-14
Partially contracted basis set               ... on
Rotationally invariant grid construction     ... off
Angular grids for H and He will be reduced by one unit

Total number of grid points                  ...    46391
Total number of batches                      ...      377
Average number of points per batch           ...      123
Average number of grid points per atom       ...     1325
UseSFitting                                  ... on

GRIDX 3
-------
General Integration Accuracy     IntAcc      ... 4.338
Radial Grid Type                 RadialGrid  ... OptM3 with GC (2021)
Angular Grid (max. ang.)         AngularGrid ... 3 (Lebedev-194)
Angular grid pruning method      GridPruning ... 4 (adaptive)
Weight generation scheme         WeightScheme... mBecke (2022)
Basis function cutoff            BFCut       ... 1.0000e-11
Integration weight cutoff        WCut        ... 1.0000e-14
Partially contracted basis set               ... on
Rotationally invariant grid construction     ... off
Angular grids for H and He will be reduced by one unit

Total number of grid points                  ...   101595
Total number of batches                      ...      810
Average number of points per batch           ...      125
Average number of grid points per atom       ...     2903
UseSFitting                                  ... on
Initializing property integral containers    ... done (  0.0 sec)

SHARK setup successfully completed in   7.6 seconds

Maximum memory used throughout the entire STARTUP-calculation: 107.5 MB
Occupation numbers will be reassigned to an Aufbau configuration
             **** ENERGY FILE WAS UPDATED (HBQ-H.en.tmp) ****
Finished Guess after   0.8 sec
Maximum memory used throughout the entire GUESS-calculation: 68.9 MB
--------------------
CPCM SOLVATION MODEL
--------------------
CPCM parameters:
  Epsilon                                         ...      80.1510
  Refrac                                          ...       1.3328
  Rsolv                                           ...       1.3000
  Surface type                                    ... GAUSSIAN VDW
  Discretization scheme                           ... Constant charge density
    Threshold for H atoms                         ...       5.0000 (charges/Ang^2)
    Threshold for non-H atoms                     ...       5.0000 (charges/Ang^2)
  Epsilon function type                           ...         CPCM
Solvent:                                          ... WATER
Radii:
  Scheme                                          ... Element-dependent radii
  Radius for C  used is    3.8550 Bohr (=   2.0400 Ang.)
  Radius for O  used is    3.4469 Bohr (=   1.8240 Ang.)
  Radius for N  used is    3.5149 Bohr (=   1.8600 Ang.)
  Radius for H  used is    2.4944 Bohr (=   1.3200 Ang.)
Calculating surface                               ...        done! (  0.0s)
Cavity surface points                             ...         3046
Cavity Volume                                     ...    2130.2989
Cavity Surface-area                               ...    1085.6195
Calculating surface distance matrix               ...        done! (  0.0s)
Performing Cholesky decomposition & store         ...        done! (  0.9s)
Overall time for CPCM initialization              ...                 1.0s

----------------------------------------D-I-I-S--------------------------------------------
Iteration    Energy (Eh)           Delta-E    RMSDP     MaxDP     DIISErr   Damp  Time(sec)
-------------------------------------------------------------------------------------------
               ***  Starting incremental Fock matrix formation  ***
    1    -878.3702157272396107     0.00e+00  2.39e-05  1.46e-03  3.35e-03  0.700  37.1
                              *** Initializing SOSCF ***
---------------------------------------S-O-S-C-F--------------------------------------
Iteration    Energy (Eh)           Delta-E    RMSDP     MaxDP     MaxGrad    Time(sec)
--------------------------------------------------------------------------------------
    2    -878.3702571206817993    -4.14e-05  6.86e-05  3.98e-03  2.61e-03    14.5
               *** Restarting incremental Fock matrix formation ***
    3    -878.3703695897497710    -1.12e-04  1.34e-05  5.78e-04  1.55e-04    37.3
    4    -878.3703728205641710    -3.23e-06  2.37e-05  2.38e-03  2.68e-05    23.5
    5    -878.3703726637854743     1.57e-07  1.05e-05  1.07e-03  6.09e-05    21.7
    6    -878.3703729744120210    -3.11e-07  3.63e-06  3.44e-04  9.04e-06    19.9
    7    -878.3703729451167419     2.93e-08  6.33e-06  5.95e-04  1.60e-05    16.7
    8    -878.3703729495250627    -4.41e-09  8.31e-06  7.59e-04  2.42e-06    17.5
                 **** Energy Check signals convergence ****

               *****************************************************
               *                     SUCCESS                       *
               *           SCF CONVERGED AFTER   8 CYCLES          *
               *****************************************************

Recomputing exchange energy using gridx3       ... done (   58.793 sec)
Old exchange energy                            :    -23.567554170 Eh
New exchange energy                            :    -23.567533157 Eh
Exchange energy change after final integration :      0.000021012 Eh
Total energy after final integration           :   -878.370351937 Eh
             **** ENERGY FILE WAS UPDATED (HBQ-H.en.tmp) ****

----------------
TOTAL SCF ENERGY
----------------

Total Energy       :       -878.37035193712040 Eh          -23901.67241 eV

Components:
Nuclear Repulsion  :       1507.14004174802540 Eh           41011.36551 eV
Electronic Energy  :      -2385.42334258024266 Eh          -64910.66915 eV
One Electron Energy:      -4165.93736016170169 Eh         -113360.91873 eV
Two Electron Energy:       1780.51401758145903 Eh           48450.24958 eV
CPCM Dielectric    :         -0.08707211730773 Eh              -2.36935 eV

Virial components:
Potential Energy   :      -1752.81072868858769 Eh          -47696.40477 eV
Kinetic Energy     :        874.44037675146728 Eh           23794.73235 eV
Virial Ratio       :          2.00449427461281

DFT components:
N(Alpha)           :       69.999982621622 electrons
N(Beta)            :       69.999982621622 electrons
N(Total)           :      139.999965243245 electrons
E(X)               :      -93.697752867883 Eh       
E(C)               :       -5.639075889742 Eh       
E(XC)              :      -99.336828757625 Eh       

CPCM Solvation Model Properties:
Surface-charge          :         -1.02879453029701
Corrected charge        :         -1.00000000000000
Outlying charge corr.   :          0.00004608338260 Eh               0.00125 eV
Free-energy (cav+disp)  :  This term is not implemented in the current solvation scheme

---------------
SCF CONVERGENCE
---------------

  Last Energy change         ...    4.4083e-09  Tolerance :   1.0000e-08
  Last MAX-Density change    ...    7.5934e-04  Tolerance :   1.0000e-07
  Last RMS-Density change    ...    8.3139e-06  Tolerance :   5.0000e-09
  Last DIIS Error            ...    2.6091e-03  Tolerance :   5.0000e-07
  Last Orbital Gradient      ...    2.4168e-06  Tolerance :   1.0000e-05
  Last Orbital Rotation      ...    7.3744e-06  Tolerance :   1.0000e-05


Total SCF time: 0 days 0 hours 4 min 9 sec 
Finished LeanSCF after 249.8 sec

Maximum memory used throughout the entire LEANSCF-calculation: 130.9 MB

------------------------------------------------------------------------------
                         ORCA PROPERTY INTEGRAL CALCULATIONS
------------------------------------------------------------------------------

GBWName                                   ... HBQ-H.gbw
Number of atoms                           ...     35
Number of basis functions                 ...    570
Max core memory                           ...   1024 MB

Dipole integrals                          ... YES
Quadrupole integrals                      ...  NO
Linear momentum integrals                 ... YES
Angular momentum integrals                ... YES
Higher moments length integrals           ...  NO
Higher moments velocity integrals         ...  NO
Kinetic energy integrals                  ...  NO
GIAO right hand sides                     ...  NO
GIAO dipole derivative integrals          ...  NO
SOC integrals                             ...  NO
EPR diamagnetic integrals (GIAO)          ...  NO
EPR gauge integrals                       ...  NO
Field gradient integrals                  ...  NO (   0 nuclei)
Spin-dipole/Fermi contact integrals       ...  NO (   0 nuclei)
Contact density integrals                 ...  NO (   0 nuclei)
Nucleus-orbit integrals                   ...  NO (   0 nuclei)
Geometric perturbations                   ...  NO (  35 nuclei)

Choice of electric origin   ... Center of mass
Position of electric origin ... ( -2.5793,  2.1461,  0.9746) 
Choice of magnetic origin   ... GIAO
Position of magnetic origin ... (  0.0000,  0.0000,  0.0000) 

Calculating integrals                     ... Electric Dipole (Length)     done (  0.2 sec)
Calculating integrals                     ... Linear Momentum              done (  0.3 sec)
Calculating integrals                     ... Angular Momentum  (ElOri)    done (  0.3 sec)

Property integrals calculated in   0.9 sec

Maximum memory used throughout the entire PROPINT-calculation: 71.3 MB
------------------------------------------------------------------------------
                        ORCA TD-DFT/TDA CALCULATION
------------------------------------------------------------------------------

Input orbitals are from        ... HBQ-H.gbw
CI-vector output               ... HBQ-H.cis
Solver                         ... FN-2001
Tamm-Dancoff approximation     ... operative
CIS-Integral strategy          ... AO-integrals
Integral handling              ... AO integral Direct
Max. core memory used          ... 512 MB
Reference state                ... RHF
Generation of triplets         ... off
Follow IRoot                   ... off
Number of operators            ... 1
Orbital ranges used for CIS calculation:
 Operator 0:  Orbitals  20... 69  to  70...569
XAS localization array:
 Operator 0:  Orbitals  -1... -1

-------------------
XC-INTEGRATION GRID
-------------------

General Integration Accuracy     IntAcc      ... 3.467
Radial Grid Type                 RadialGrid  ... OptM3 with GC (2021)
Angular Grid (max. ang.)         AngularGrid ... 1 (Lebedev-50)
Angular grid pruning method      GridPruning ... 4 (adaptive)
Weight generation scheme         WeightScheme... mBecke (2022)
Basis function cutoff            BFCut       ... 1.0000e-11
Integration weight cutoff        WCut        ... 1.0000e-14
Partially contracted basis set               ... off
Rotationally invariant grid construction     ... off
Angular grids for H and He will be reduced by one unit

Total number of grid points                  ...    24526
Total number of batches                      ...      400
Average number of points per batch           ...       61
Average number of grid points per atom       ...      701

---------------------
COSX-INTEGRATION GRID
---------------------

General Integration Accuracy     IntAcc      ... 3.067
Radial Grid Type                 RadialGrid  ... OptM3 with GC (2021)
Angular Grid (max. ang.)         AngularGrid ... 1 (Lebedev-50)
Angular grid pruning method      GridPruning ... 4 (adaptive)
Weight generation scheme         WeightScheme... mBecke (2022)
Basis function cutoff            BFCut       ... 1.0000e-11
Integration weight cutoff        WCut        ... 1.0000e-14
Partially contracted basis set               ... on
Rotationally invariant grid construction     ... off
Angular grids for H and He will be reduced by one unit

Total number of grid points                  ...    11333
Total number of batches                      ...      112
Average number of points per batch           ...      101
Average number of grid points per atom       ...      324

---------------
TD-DFT XC SETUP
---------------

DFT calculation                         ... on
Name of the grid file                   ... HBQ-H.grid_cis.tmp
RI-approximation                        ... on
Aux-basis dimension                     ... 1745
Exchange functional (TD-DFT)            ... B88
   X-Alpha parameter    XAlpha (TD-DFT) ...  0.666667
   Becke's b parameter  XBeta (TD-DFT)  ...  0.004200
Correlation functional (TD-DFT)         ... LYP
 LDA part of GGA corr.  LDAOpt (TD-DFT) ... VWN-5
Hybrid DFT                              ... on
   Exchange mixing (TD-DFT)             ...  0.200
   GGA exch. scaling (TD-DFT)           ...  0.720
   GGA corr. scaling (TD-DFT)           ...  0.810

Building densities             ... done
Calculating rho(r) on the grid ... done
Building xc-kernel on the grid ... done
                    *** TD-DFT CALCULATION INITIALIZED ***

-----------------------------
    LR-CPCM (equilibrium)
-----------------------------

Setting up LR-CPCM             ... done

------------------------
DAVIDSON-DIAGONALIZATION
------------------------

Dimension of the eigenvalue problem            ...  25000
Number of roots to be determined               ...      1
Maximum size of the expansion space            ...     10
Maximum number of iterations                   ...    100
Convergence tolerance for the residual         ...    2.500e-07
Convergence tolerance for the energies         ...    2.500e-07
Orthogonality tolerance                        ...    1.000e-14
Level Shift                                    ...    0.000e+00
Constructing the preconditioner                ... o.k.
Building the initial guess                     ... o.k.
Number of trial vectors determined             ...     10


                       ****Iteration    0****
   Time for iteration     :  TOTAL=22.1 TRAFO=0.0 RIJ=3.7 COSX=8.8 XC=1.5
   Size of expansion space: 3
   Lowest Energy          :     0.117853304065
   Maximum Energy change  :     0.117853304065 (vector 0)
   Maximum residual norm  :     0.010496890506

                       ****Iteration    1****
   Time for iteration     :  TOTAL=17.6 TRAFO=1.5 RIJ=2.4 COSX=6.7 XC=0.5
   Size of expansion space: 4
   Lowest Energy          :     0.107215229182
   Maximum Energy change  :     0.010638074883 (vector 0)
   Maximum residual norm  :     0.000215663228

                       ****Iteration    2****
   Time for iteration     :  TOTAL=16.2 TRAFO=0.0 RIJ=2.4 COSX=6.8 XC=0.5
   Size of expansion space: 5
   Lowest Energy          :     0.106957442896
   Maximum Energy change  :     0.000257786285 (vector 0)
   Maximum residual norm  :     0.000034503929

                       ****Iteration    3****
   Time for iteration     :  TOTAL=16.5 TRAFO=0.3 RIJ=2.5 COSX=6.9 XC=0.5
   Size of expansion space: 6
   Lowest Energy          :     0.106898976119
   Maximum Energy change  :     0.000058466777 (vector 0)
   Maximum residual norm  :     0.000004813068

                       ****Iteration    4****
   Time for iteration     :  TOTAL=16.6 TRAFO=0.0 RIJ=2.6 COSX=7.0 XC=0.5
   Size of expansion space: 7
   Lowest Energy          :     0.106893748737
   Maximum Energy change  :     0.000005227382 (vector 0)
   Maximum residual norm  :     0.000000694583

                       ****Iteration    5****
   Time for iteration     :  TOTAL=16.3 TRAFO=0.0 RIJ=2.5 COSX=6.9 XC=0.5
   Size of expansion space: 8
   Lowest Energy          :     0.106892964627
   Maximum Energy change  :     0.000000784110 (vector 0)
   Maximum residual norm  :     0.000000052457

      *** CONVERGENCE OF RESIDUAL NORM REACHED ***

Storing the converged CI vectors               ... HBQ-H.cis1

                 *** DAVIDSON DONE ***

Total time for solving the CIS problem:   107.407sec

------------------------------------
TD-DFT/TDA EXCITED STATES (SINGLETS)
------------------------------------

the weight of the individual excitations are printed if larger than 1.0e-02

STATE  1:  E=   0.106893 au      2.909 eV    23460.3 cm**-1 <S**2> =   0.000000 Mult 1
    67a ->  71a  :     0.014020 (c= -0.11840516)
    69a ->  70a  :     0.966150 (c= -0.98292931)


-----------------------------
TD-DFT/TDA-EXCITATION SPECTRA
-----------------------------

Center of mass = ( -2.5793,  2.1461,  0.9746)
Generating CIS transition densities           ... done

----------------------------------------------------------------------------------------------------
                     ABSORPTION SPECTRUM VIA TRANSITION ELECTRIC DIPOLE MOMENTS    
----------------------------------------------------------------------------------------------------
     Transition      Energy     Energy  Wavelength fosc(D2)      D2        DX        DY        DZ   
                      (eV)      (cm-1)    (nm)                 (au**2)    (au)      (au)      (au)  
----------------------------------------------------------------------------------------------------
  0-1A  ->  1-1A    2.908705   23460.3   426.3   0.254119540   3.56599   1.65694   0.89095   0.16356

----------------------------------------------------------------------------------------------------
                     ABSORPTION SPECTRUM VIA TRANSITION VELOCITY DIPOLE MOMENTS    
----------------------------------------------------------------------------------------------------
     Transition      Energy     Energy  Wavelength fosc(P2)      P2        PX        PY        PZ   
                      (eV)      (cm-1)    (nm)                 (au**2)    (au)      (au)      (au)  
----------------------------------------------------------------------------------------------------
  0-1A  ->  1-1A    2.908705   23460.3   426.3   0.060130949   0.00964  -0.08720  -0.04308  -0.01349

------------------------------------------------------------------------------------------
                     CD SPECTRUM VIA TRANSITION ELECTRIC DIPOLE MOMENTS    
------------------------------------------------------------------------------------------
     Transition      Energy     Energy  Wavelength    R        MX        MY        MZ   
                      (eV)      (cm-1)    (nm)   (1e40*cgs)   (au)      (au)      (au)  
------------------------------------------------------------------------------------------
  0-1A  ->  1-1A    2.908705   23460.3   426.3    1.05674  -0.07082   0.18875  -0.32446

------------------------------------------------------------------------------------------
                     CD SPECTRUM VIA TRANSITION VELOCITY DIPOLE MOMENTS    
------------------------------------------------------------------------------------------
     Transition      Energy     Energy  Wavelength    R        MX        MY        MZ   
                      (eV)      (cm-1)    (nm)   (1e40*cgs)   (au)      (au)      (au)  
------------------------------------------------------------------------------------------
  0-1A  ->  1-1A    2.908705   23460.3   426.3   10.68074  -0.07082   0.18875  -0.32446

Total run time:      108.984 sec

           *** ORCA-CIS/TD-DFT FINISHED WITHOUT ERROR ***
-----------------------
CIS/TD-DFT TOTAL ENERGY
-----------------------

    E(SCF)  =   -878.370351937 Eh
    DE(CIS) =      0.106892965 Eh (Root  1)
    ----------------------------- ---------
    E(tot)  =   -878.263458972 Eh


------------------------
TD-DFT GRADIENT XC SETUP
------------------------

Building densities                     ... done
Calculating rho(r) on the grid         ... done
Building xc-kernel on the grid         ... done
Building xc 3rd derivative on the grid ... done
                *** TD-DFT GRADIENT CALCULATION INITIALIZED ***

--------------------------
TD-DFT/TDA RELAXED DENSITY
--------------------------

Reference wavefunction             ... RHF
State of interest                  ... 1
Basis dimension                    ... 570
DFT-XC contribution needed         ... YES
RI-approximation                   ... YES
Do Coulomb                         ... YES
Do Exchange                        ... YES
Need Hartree-Fock Exchange         ... YES
facj, facx                         ...  2.000, -0.200
Conventional                       ... NO
Range separation                   ... NO
Triplet state                      ... NO
Spin Flip                          ... NO
CIS-vectors being read from        ... HBQ-H.cis
 => Number of Vectors found: 1
 => Orbital Window: 20...69 -> 70...569

Reading the CIS file                     ... done
Norm of the CI vector                    ... 1.000000000
Reading the CPCM file                    ... done
Making the CIS (pseudo)densities         ... done
Making operators G(D) and Q(T)           ... (SHARK-ok)done
Transforming the Fock operators          ... done
Making the frozen-core relaxed density   ... done
Constructing the G(H) operator           ... (SHARK-ok)done
Transforming the G(H) operator           ... done
Calculating the CIS Lagrangian           ... done
Solving the Z-vector equations           ... 

Using XC Grid                  ... (HBQ-H.grid_cpscf.tmp) 
Recalculating density on grid  ... (HBQ-H.grho_cpscf0.tmp) done
Calculating the xc-kernel      ... (HBQ-H.fxc_cpscf0.tmp) done

-------------------
SHARK CP-SCF DRIVER
-------------------

Dimension of the orbital basis          ...    570
Dimension of the CPSCF-problem          ...  35000
Number of operators                     ...      1
Max. number of iterations               ...    128
Convergence Tolerance                   ... 1.0e-04
Number of perturbations                 ...      1
Perturbation type                       ... REAL

----------------------------
POPLE LINEAR EQUATION SOLVER
----------------------------

  ITERATION   0:   ||err||_max =   1.6779e+00 (  16.7 sec)
  ITERATION   1:   ||err||_max =   8.9400e-02 (  16.9 sec)
  ITERATION   2:   ||err||_max =   1.8899e-02 (  16.7 sec)
  ITERATION   3:   ||err||_max =   6.3562e-03 (  17.2 sec)
  ITERATION   4:   ||err||_max =   2.3652e-03 (  18.7 sec)
  ITERATION   5:   ||err||_max =   1.0388e-03 (  17.1 sec)
  ITERATION   6:   ||err||_max =   3.0816e-04 (  18.3 sec)
  ITERATION   7:   ||err||_max =   1.3252e-04 (  17.2 sec)
  ITERATION   8:   ||err||_max =   3.4419e-05 (  17.8 sec)

Finalizing the relaxed density           ... done
Storing the relaxed density              ... done
Constructing the G(Z) operator           ... (SHARK-ok)done
Adding the CPCM contribution             ... done
Adding the XC terms                      ... done
Transforming the G(Z) operator           ... done
Making the W-matrix                      ... done
Finalizing the W-matrix                  ... done
Transforming the W-matrix                ... done
Nuc. rep. gradient        (SHARK) ... done (  0.0 sec)
HCore & Overlap gradient  (SHARK) ... done (  2.0 sec)
Split-RIJ-J gradient      (SHARK) ... done ( 11.8 sec)
COSX-gradient                     ... done (114.8 sec)
CPCM gradient                     ... done (  9.7 sec)
Dispersion correction             ... done (  0.0 sec)

-------------------
DISPERSION GRADIENT
-------------------

   1   C   :   -0.000565043   -0.000588137   -0.000113956
   2   C   :   -0.000486559   -0.000673621   -0.000244837
   3   C   :   -0.000232493   -0.000731154   -0.000384549
   4   C   :   -0.000444303   -0.000287031   -0.000049788
   5   C   :   -0.000006594   -0.000220635   -0.000069089
   6   O   :   -0.000240618    0.000052803    0.000100506
   7   C   :    0.000139419   -0.000568181   -0.000369971
   8   C   :    0.000578056   -0.000525277   -0.000462985
   9   C   :    0.000703446   -0.000375243   -0.000399676
  10   C   :    0.000263416    0.000258325    0.000110920
  11   C   :    0.000659419    0.000046356   -0.000128582
  12   N   :    0.000201846    0.000587843    0.000295716
  13   C   :    0.000203203    0.000702751    0.000368700
  14   C   :    0.000451144    0.000563592    0.000236667
  15   C   :    0.000744013    0.000358704    0.000040585
  16   C   :   -0.000585913    0.000236287   -0.000213966
  17   O   :   -0.000444037    0.000236225   -0.000492305
  18   N   :   -0.000383646    0.000287111    0.000255689
  19   C   :   -0.000469894    0.000298877    0.000036539
  20   C   :   -0.000080509    0.000114660    0.000688373
  21   H   :    0.000002826   -0.000028594    0.000445737
  22   H   :   -0.000008669   -0.000038485    0.000331337
  23   H   :    0.000066964    0.000162862    0.000335741
  24   H   :   -0.000239048    0.000132972   -0.000087594
  25   H   :   -0.000194702    0.000265939    0.000026300
  26   H   :   -0.000306937    0.000074922    0.000083874
  27   H   :   -0.000000662   -0.000334398   -0.000205672
  28   H   :   -0.000324403   -0.000234690   -0.000004305
  29   H   :   -0.000216178   -0.000257191   -0.000098715
  30   H   :    0.000214746   -0.000258470   -0.000212886
  31   H   :    0.000335287   -0.000138599   -0.000165550
  32   H   :   -0.000014349    0.000304962    0.000181060
  33   H   :    0.000210536    0.000232308    0.000091915
  34   H   :    0.000376010    0.000069548   -0.000049961
  35   H   :    0.000094225    0.000272657    0.000124730

Difference to translation invariance:
           :   -0.0000000000   -0.0000000000   -0.0000000000

Difference to rotation invariance:
           :    0.0000000000   -0.0000000000   -0.0000000000

Norm of the Dispersion gradient    ...    0.0034214751
RMS gradient                       ...    0.0003339018
MAX gradient                       ...    0.0007440132

                 ---------------------------
                 EXCITED STATE GRADIENT DONE
                 ---------------------------

------------------
CARTESIAN GRADIENT
------------------

   1   C   :   -0.000089059    0.000008802    0.000024842
   2   C   :    0.000155436    0.000122343    0.000035352
   3   C   :    0.000010978    0.000069373    0.000069256
   4   C   :   -0.000263811    0.000057084    0.000173018
   5   C   :    0.000256269   -0.000120944   -0.000076082
   6   O   :    0.000025700   -0.000080320   -0.000324655
   7   C   :   -0.000005297   -0.000034749    0.000001057
   8   C   :    0.000002222    0.000006449   -0.000000048
   9   C   :   -0.000128078    0.000092886    0.000085507
  10   C   :   -0.000169668    0.000131819    0.000087533
  11   C   :    0.000060735   -0.000076673   -0.000067232
  12   N   :    0.000174927    0.000068136    0.000020199
  13   C   :   -0.000007220   -0.000097791   -0.000106412
  14   C   :   -0.000033656   -0.000026436   -0.000035612
  15   C   :   -0.000017896   -0.000001083   -0.000023550
  16   C   :   -0.000027551   -0.000149699    0.000263133
  17   O   :    0.000011422    0.000044444   -0.000085799
  18   N   :   -0.000034448    0.000128331   -0.000010869
  19   C   :    0.000036577    0.000001535    0.000021875
  20   C   :   -0.000045315   -0.000083305    0.000099396
  21   H   :    0.000014037    0.000057028   -0.000002467
  22   H   :    0.000016085   -0.000003673    0.000005246
  23   H   :   -0.000008002    0.000040685   -0.000056180
  24   H   :    0.000018190   -0.000038138   -0.000003303
  25   H   :    0.000014630    0.000012995   -0.000005398
  26   H   :    0.000014449   -0.000013480    0.000031245
  27   H   :    0.000004247   -0.000020815    0.000007572
  28   H   :    0.000024679   -0.000031873    0.000023916
  29   H   :   -0.000013890   -0.000030138    0.000033708
  30   H   :   -0.000041220   -0.000034991    0.000018754
  31   H   :    0.000018414    0.000031679    0.000002829
  32   H   :   -0.000015684    0.000006781   -0.000002915
  33   H   :    0.000005004    0.000017812   -0.000030421
  34   H   :    0.000000392   -0.000000859   -0.000033518
  35   H   :   -0.000052305   -0.000088830   -0.000061436

Difference to translation invariance:
           :   -0.0000887063   -0.0000356177    0.0000785392

Difference to rotation invariance:
           :   -0.0015167782    0.0023249753    0.0006502285

Norm of the Cartesian gradient     ...    0.0008375192
RMS gradient                       ...    0.0000817335
MAX gradient                       ...    0.0003246553

------------------------------------------------------------------------------
                  RELAXED CIS/TDA DENSITY POPULATION ANALYSIS
                                   IROOT 1
------------------------------------------------------------------------------
------------------------------------------------------------------------------
                           ORCA POPULATION ANALYSIS
------------------------------------------------------------------------------
Input electron density              ... HBQ-H.cispre.singlet.iroot1
BaseName (.gbw .S,...)              ... HBQ-H

-------
TIMINGS
-------

Total TD-DFT gradient time  ....      485.352 sec

Fock matrix formation       ....     124.031 sec  ( 25.6%)
  Coulomb formation         ....     112.783 sec  ( 90.9% of F)
  XC integration            ....      11.248 sec  (  9.1% of F)
Z-vector equation           ....     158.020 sec  ( 32.6%)
Densities                   ....       0.000 sec  (  0.0%)
One electron gradient       ....       2.039 sec  (  0.4%)
Two electron gradient       ....       0.000 sec  (  0.0%)
RI-J Coulomb gradient       ....      11.779 sec  (  2.4%)
COSX gradient               ....      26.977 sec  (  5.6%)
XC gradient                 ....     114.849 sec  ( 23.7%)
CPCM gradient               ....       9.689 sec  (  2.0%)
   A-Matrix (El+Nuc)        ....       0.244 sec  (  0.1%)
   Potential                ....       9.446 sec  (  1.9%)

Maximum memory used throughout the entire CIS-calculation: 268.0 MB
=> NOW LEAVING ORCA_CIS


-------------------------------------------------------------------------------
                          DFT DISPERSION CORRECTION                            
                                                                               
                              DFTD3 V3.1  Rev 1                                
                          USING Becke-Johnson damping                          
-------------------------------------------------------------------------------
-------------------------   ----------------
Dispersion correction           -0.077347455
-------------------------   ----------------


-------------------------   --------------------
FINAL SINGLE POINT ENERGY      -878.340806427521
-------------------------   --------------------

------------------------------------------------------------------------------
                         ORCA GEOMETRY RELAXATION STEP
------------------------------------------------------------------------------

Reading the OPT-File                    .... done
Getting information on internals        .... done
Copying old internal coords+grads       .... done
Making the new internal coordinates     .... (2022 redundants) done
Validating the new internal coordinates .... (2022 redundants) done
Calculating the B-matrix                .... done
Calculating the G,G- and P matrices     .... done
Transforming gradient to internals      .... done
Projecting the internal gradient        .... done
Number of atoms                         ....  35
Number of internal coordinates          .... 181
Current Energy                          ....  -878.340806428 Eh
Current gradient norm                   ....     0.000837519 Eh/bohr
Maximum allowed component of the step   ....  0.300
Current trust radius                    ....  0.200
Updating the Hessian (BFGS)             .... done
Forming the augmented Hessian           .... done
Diagonalizing the augmented Hessian     .... done
Last element of RFO vector              ....  0.999878218
Lowest eigenvalues of augmented Hessian:
 -0.000002091  0.004060148  0.015705279  0.017921659  0.020047310
Length of the computed step             ....  0.015607954
The final length of the internal step   ....  0.015607954
Converting the step to Cartesian space:
 Initial RMS(Int)=    0.0011601301
Transforming coordinates:
 Iter   0:  RMS(Cart)=    0.0038294684 RMS(Int)=    0.4670052172
done
Storing new coordinates                 .... done
The predicted energy change is          ....    -0.000001046
Previously predicted energy change      ....    -0.000002596
Actually observed energy change         ....     0.000000456
Ratio of predicted to observed change   ....     0.175823613
New trust radius                        ....     0.133333333

                                .--------------------.
          ----------------------|Geometry convergence|-------------------------
          Item                value                   Tolerance       Converged
          ---------------------------------------------------------------------
          Energy change       0.0000004564            0.0000050000      YES
          RMS gradient        0.0000479255            0.0001000000      YES
          MAX gradient        0.0002174628            0.0003000000      YES
          RMS step            0.0011601301            0.0020000000      YES
          MAX step            0.0062335316            0.0040000000      NO
          ........................................................
          Max(Bonds)      0.0004      Max(Angles)    0.04
          Max(Dihed)        0.36      Max(Improp)    0.00
          ---------------------------------------------------------------------

The optimization has not yet converged - more geometry cycles are needed


    ---------------------------------------------------------------------------
                         Redundant Internal Coordinates
                            (Angstroem and degrees)

        Definition                    Value    dE/dq     Step     New-Value
    ----------------------------------------------------------------------------
     1. B(C   1,C   0)                1.3883 -0.000039  0.0000    1.3883   
     2. B(C   2,C   1)                1.3771 -0.000054  0.0000    1.3772   
     3. B(C   3,C   0)                1.4085 -0.000070  0.0000    1.4085   
     4. B(C   4,C   3)                1.4190  0.000217 -0.0002    1.4188   
     5. B(O   5,C   3)                1.3521 -0.000169  0.0003    1.3524   
     6. B(C   6,C   4)                1.4283 -0.000084  0.0002    1.4284   
     7. B(C   6,C   2)                1.4300 -0.000148  0.0001    1.4300   
     8. B(C   7,C   6)                1.3986 -0.000076  0.0000    1.3986   
     9. B(C   8,C   7)                1.3809 -0.000031  0.0001    1.3810   
    10. B(C   9,C   4)                1.4280 -0.000029  0.0001    1.4280   
    11. B(C  10,C   9)                1.4055  0.000012  0.0000    1.4056   
    12. B(C  10,C   8)                1.4155 -0.000166  0.0001    1.4156   
    13. B(N  11,C   9)                1.3868 -0.000161  0.0001    1.3868   
    14. B(C  12,N  11)                1.3736 -0.000095  0.0001    1.3737   
    15. B(C  13,C  12)                1.3665 -0.000017  0.0000    1.3665   
    16. B(C  14,C  13)                1.4004 -0.000050  0.0000    1.4004   
    17. B(C  14,C  10)                1.4207 -0.000059  0.0001    1.4208   
    18. B(C  15,O   5)                1.4189 -0.000029 -0.0004    1.4185   
    19. B(O  16,C  15)                1.2123  0.000078  0.0001    1.2123   
    20. B(N  17,C  15)                1.3307  0.000047  0.0001    1.3308   
    21. B(C  18,N  17)                1.4600 -0.000089  0.0001    1.4600   
    22. B(C  19,N  17)                1.4616  0.000002  0.0000    1.4616   
    23. B(H  20,C  19)                1.0833 -0.000028  0.0001    1.0834   
    24. B(H  21,C  19)                1.0901 -0.000004 -0.0000    1.0901   
    25. B(H  22,C  19)                1.0918  0.000011  0.0000    1.0918   
    26. B(H  23,C  18)                1.0844  0.000004 -0.0000    1.0844   
    27. B(H  24,C  18)                1.0914  0.000014 -0.0000    1.0914   
    28. B(H  25,C  18)                1.0909  0.000008  0.0000    1.0909   
    29. B(H  26,C   2)                1.0816  0.000016 -0.0000    1.0816   
    30. B(H  27,C   0)                1.0792 -0.000025  0.0000    1.0792   
    31. B(H  28,C   1)                1.0802  0.000018 -0.0000    1.0802   
    32. B(H  29,C   7)                1.0813  0.000005 -0.0000    1.0813   
    33. B(H  30,C   8)                1.0824  0.000018 -0.0000    1.0824   
    34. B(H  31,C  12)                1.0787  0.000012 -0.0000    1.0787   
    35. B(H  32,C  13)                1.0804  0.000011 -0.0000    1.0804   
    36. B(H  33,C  14)                1.0795  0.000011 -0.0000    1.0795   
    37. B(H  34,O   5)                1.9485 -0.000007  0.0003    1.9488   
    38. B(H  34,N  11)                1.0052  0.000014 -0.0000    1.0052   
    39. A(C   1,C   0,H  27)          120.31  0.000031    0.01    120.31   
    40. A(C   1,C   0,C   3)          121.10 -0.000091   -0.00    121.10   
    41. A(C   3,C   0,H  27)          118.58  0.000059   -0.01    118.57   
    42. A(C   0,C   1,H  28)          120.19 -0.000055    0.01    120.20   
    43. A(C   0,C   1,C   2)          118.76  0.000104   -0.00    118.75   
    44. A(C   2,C   1,H  28)          121.04 -0.000049   -0.00    121.04   
    45. A(C   1,C   2,C   6)          121.38  0.000018    0.00    121.38   
    46. A(C   1,C   2,H  26)          120.78 -0.000004   -0.01    120.77   
    47. A(C   6,C   2,H  26)          117.84 -0.000014    0.01    117.85   
    48. A(C   4,C   3,O   5)          118.51 -0.000035    0.02    118.53   
    49. A(C   0,C   3,C   4)          122.16 -0.000027    0.01    122.17   
    50. A(C   0,C   3,O   5)          119.21  0.000062   -0.03    119.18   
    51. A(C   3,C   4,C   9)          125.78 -0.000016    0.00    125.78   
    52. A(C   6,C   4,C   9)          118.52 -0.000004    0.00    118.52   
    53. A(C   3,C   4,C   6)          115.70  0.000020   -0.00    115.69   
    54. A(C   3,O   5,C  15)          120.23  0.000217   -0.04    120.19   
    55. A(C   2,C   6,C   7)          118.88 -0.000010    0.00    118.89   
    56. A(C   4,C   6,C   7)          120.22  0.000035   -0.00    120.22   
    57. A(C   2,C   6,C   4)          120.90 -0.000025   -0.00    120.90   
    58. A(C   8,C   7,H  29)          120.43  0.000061    0.01    120.44   
    59. A(C   6,C   7,H  29)          119.36 -0.000024   -0.00    119.36   
    60. A(C   6,C   7,C   8)          120.21 -0.000037   -0.00    120.20   
    61. A(C   7,C   8,H  30)          119.93  0.000026    0.00    119.93   
    62. A(C  10,C   8,H  30)          118.33 -0.000055   -0.01    118.32   
    63. A(C   7,C   8,C  10)          121.74  0.000029    0.00    121.74   
    64. A(C  10,C   9,N  11)          117.07 -0.000011    0.00    117.07   
    65. A(C   4,C   9,C  10)          120.77 -0.000043   -0.00    120.76   
    66. A(C   4,C   9,N  11)          122.17  0.000054    0.00    122.17   
    67. A(C   8,C  10,C  14)          120.61 -0.000046    0.00    120.62   
    68. A(C   9,C  10,C  14)          120.84  0.000026   -0.00    120.84   
    69. A(C   8,C  10,C   9)          118.55  0.000020    0.00    118.55   
    70. A(C   9,N  11,H  34)          118.70 -0.000111   -0.02    118.68   
    71. A(C   9,N  11,C  12)          122.57  0.000010    0.00    122.57   
    72. A(C  12,N  11,H  34)          118.73  0.000101    0.02    118.75   
    73. A(N  11,C  12,H  31)          115.38 -0.000026    0.00    115.39   
    74. A(C  13,C  12,H  31)          123.82 -0.000001    0.00    123.82   
    75. A(N  11,C  12,C  13)          120.80  0.000027   -0.00    120.80   
    76. A(C  12,C  13,H  32)          119.04  0.000011   -0.00    119.04   
    77. A(C  12,C  13,C  14)          119.74 -0.000012    0.00    119.75   
    78. A(C  14,C  13,H  32)          121.21  0.000001    0.00    121.21   
    79. A(C  10,C  14,H  33)          119.36  0.000011   -0.00    119.36   
    80. A(C  10,C  14,C  13)          118.98 -0.000040    0.00    118.98   
    81. A(C  13,C  14,H  33)          121.65  0.000029    0.00    121.66   
    82. A(O  16,C  15,N  17)          128.77 -0.000036   -0.02    128.75   
    83. A(O   5,C  15,N  17)          110.72  0.000115   -0.01    110.71   
    84. A(O   5,C  15,O  16)          120.46 -0.000082    0.03    120.50   
    85. A(C  18,N  17,C  19)          115.74 -0.000037    0.01    115.75   
    86. A(C  15,N  17,C  19)          125.22  0.000084   -0.02    125.20   
    87. A(C  15,N  17,C  18)          118.97 -0.000047    0.01    118.98   
    88. A(H  24,C  18,H  25)          108.95  0.000019   -0.01    108.94   
    89. A(H  23,C  18,H  25)          109.72  0.000032   -0.00    109.71   
    90. A(N  17,C  18,H  25)          109.40 -0.000018    0.01    109.42   
    91. A(H  23,C  18,H  24)          109.70  0.000024   -0.01    109.70   
    92. A(N  17,C  18,H  24)          109.33 -0.000004   -0.00    109.33   
    93. A(N  17,C  18,H  23)          109.72 -0.000051    0.00    109.73   
    94. A(H  21,C  19,H  22)          108.89  0.000035    0.00    108.89   
    95. A(H  20,C  19,H  22)          109.64  0.000016    0.00    109.64   
    96. A(N  17,C  19,H  22)          109.86 -0.000102    0.02    109.88   
    97. A(H  20,C  19,H  21)          109.08  0.000007   -0.00    109.08   
    98. A(N  17,C  19,H  21)          108.42  0.000023   -0.01    108.40   
    99. A(N  17,C  19,H  20)          110.92  0.000022   -0.00    110.92   
   100. D(H  28,C   1,C   0,H  27)      1.34  0.000003    0.01      1.35   
   101. D(C   2,C   1,C   0,C   3)      0.66  0.000008   -0.00      0.65   
   102. D(H  28,C   1,C   0,C   3)    179.75 -0.000001    0.00    179.75   
   103. D(C   2,C   1,C   0,H  27)   -177.75  0.000012    0.00   -177.74   
   104. D(C   6,C   2,C   1,C   0)      0.10 -0.000002   -0.02      0.08   
   105. D(C   6,C   2,C   1,H  28)   -178.98  0.000008   -0.02   -179.00   
   106. D(H  26,C   2,C   1,H  28)      0.50  0.000007   -0.01      0.49   
   107. D(H  26,C   2,C   1,C   0)    179.58 -0.000002   -0.01    179.57   
   108. D(O   5,C   3,C   0,H  27)      1.30 -0.000006    0.03      1.33   
   109. D(O   5,C   3,C   0,C   1)   -177.13 -0.000002    0.04   -177.09   
   110. D(C   4,C   3,C   0,H  27)    177.20 -0.000012    0.03    177.23   
   111. D(C   4,C   3,C   0,C   1)     -1.23 -0.000008    0.03     -1.19   
   112. D(C   6,C   4,C   3,O   5)    176.89  0.000002   -0.04    176.84   
   113. D(C   6,C   4,C   3,C   0)      0.95  0.000004   -0.04      0.91   
   114. D(C   9,C   4,C   3,O   5)     -3.62  0.000000   -0.05     -3.67   
   115. D(C   9,C   4,C   3,C   0)   -179.56  0.000003   -0.04   -179.60   
   116. D(C  15,O   5,C   3,C   4)    144.06  0.000055   -0.33    143.73   
   117. D(C  15,O   5,C   3,C   0)    -39.89  0.000049   -0.33    -40.22   
   118. D(C   7,C   6,C   4,C   9)     -0.26  0.000002    0.01     -0.25   
   119. D(C   7,C   6,C   4,C   3)    179.27  0.000001    0.00    179.28   
   120. D(C   2,C   6,C   4,C   9)   -179.72  0.000004    0.02   -179.70   
   121. D(C   2,C   6,C   4,C   3)     -0.19  0.000002    0.02     -0.18   
   122. D(C   7,C   6,C   2,H  26)      0.71 -0.000002    0.01      0.72   
   123. D(C   7,C   6,C   2,C   1)   -179.80 -0.000002    0.02   -179.78   
   124. D(C   4,C   6,C   2,H  26)   -179.82 -0.000003    0.00   -179.82   
   125. D(C   4,C   6,C   2,C   1)     -0.33 -0.000003    0.01     -0.31   
   126. D(H  29,C   7,C   6,C   4)   -179.68 -0.000008    0.00   -179.68   
   127. D(H  29,C   7,C   6,C   2)     -0.21 -0.000009   -0.01     -0.22   
   128. D(C   8,C   7,C   6,C   4)      0.40 -0.000005   -0.01      0.40   
   129. D(C   8,C   7,C   6,C   2)    179.88 -0.000006   -0.02    179.87   
   130. D(C  10,C   8,C   7,C   6)     -0.41  0.000004   -0.01     -0.42   
   131. D(H  30,C   8,C   7,H  29)     -0.33  0.000005   -0.01     -0.33   
   132. D(H  30,C   8,C   7,C   6)    179.58  0.000002   -0.00    179.58   
   133. D(C  10,C   8,C   7,H  29)    179.68  0.000007   -0.01    179.67   
   134. D(N  11,C   9,C   4,C   6)    179.83  0.000007   -0.03    179.81   
   135. D(N  11,C   9,C   4,C   3)      0.36  0.000008   -0.02      0.34   
   136. D(C  10,C   9,C   4,C   6)      0.12  0.000002   -0.00      0.11   
   137. D(C  10,C   9,C   4,C   3)   -179.36  0.000003    0.00   -179.36   
   138. D(C  14,C  10,C   9,N  11)      0.10 -0.000007    0.01      0.11   
   139. D(C  14,C  10,C   9,C   4)    179.83 -0.000002   -0.01    179.82   
   140. D(C   8,C  10,C   9,N  11)   -179.85 -0.000008    0.01   -179.83   
   141. D(C   8,C  10,C   9,C   4)     -0.12 -0.000003   -0.01     -0.12   
   142. D(C  14,C  10,C   8,H  30)      0.32  0.000001    0.01      0.33   
   143. D(C  14,C  10,C   8,C   7)   -179.68 -0.000001    0.02   -179.67   
   144. D(C   9,C  10,C   8,H  30)   -179.73  0.000002    0.01   -179.72   
   145. D(C   9,C  10,C   8,C   7)      0.26  0.000000    0.01      0.28   
   146. D(H  34,N  11,C   9,C  10)   -179.68  0.000001    0.04   -179.65   
   147. D(H  34,N  11,C   9,C   4)      0.59 -0.000004    0.06      0.65   
   148. D(C  12,N  11,C   9,C  10)     -0.20  0.000004   -0.02     -0.22   
   149. D(C  12,N  11,C   9,C   4)   -179.92 -0.000000   -0.00   -179.93   
   150. D(H  31,C  12,N  11,H  34)     -0.53  0.000008   -0.05     -0.57   
   151. D(H  31,C  12,N  11,C   9)    179.98  0.000005    0.02    180.00   
   152. D(C  13,C  12,N  11,H  34)    179.60  0.000003   -0.04    179.56   
   153. D(C  13,C  12,N  11,C   9)      0.11 -0.000000    0.02      0.14   
   154. D(H  32,C  13,C  12,H  31)      0.00 -0.000005   -0.00     -0.00   
   155. D(H  32,C  13,C  12,N  11)    179.86  0.000000   -0.01    179.85   
   156. D(C  14,C  13,C  12,H  31)   -179.78 -0.000007   -0.00   -179.79   
   157. D(C  14,C  13,C  12,N  11)      0.08 -0.000002   -0.01      0.07   
   158. D(C  10,C  14,C  13,C  12)     -0.17 -0.000001   -0.00     -0.17   
   159. D(H  33,C  14,C  10,C   9)   -179.58  0.000003    0.01   -179.57   
   160. D(H  33,C  14,C  10,C   8)      0.37  0.000004    0.00      0.37   
   161. D(C  13,C  14,C  10,C   9)      0.08  0.000005    0.00      0.08   
   162. D(C  13,C  14,C  10,C   8)   -179.98  0.000006   -0.00   -179.98   
   163. D(H  33,C  14,C  13,H  32)     -0.30 -0.000001   -0.01     -0.31   
   164. D(H  33,C  14,C  13,C  12)    179.48  0.000001   -0.01    179.47   
   165. D(C  10,C  14,C  13,H  32)   -179.95 -0.000003   -0.00   -179.95   
   166. D(N  17,C  15,O   5,C   3)    156.51  0.000050    0.20    156.71   
   167. D(O  16,C  15,O   5,C   3)    -25.88 -0.000036    0.36    -25.53   
   168. D(C  19,N  17,C  15,O  16)    178.45  0.000058   -0.10    178.34   
   169. D(C  19,N  17,C  15,O   5)     -4.20 -0.000039    0.07     -4.12   
   170. D(C  18,N  17,C  15,O  16)     -4.55  0.000051   -0.10     -4.65   
   171. D(C  18,N  17,C  15,O   5)    172.81 -0.000046    0.08    172.88   
   172. D(H  25,C  18,N  17,C  15)    120.85  0.000008   -0.13    120.72   
   173. D(H  24,C  18,N  17,C  19)     57.37  0.000014   -0.13     57.24   
   174. D(H  24,C  18,N  17,C  15)   -119.91  0.000017   -0.13   -120.05   
   175. D(H  23,C  18,N  17,C  19)    177.72  0.000010   -0.13    177.59   
   176. D(H  23,C  18,N  17,C  15)      0.44  0.000012   -0.14      0.30   
   177. D(H  22,C  19,N  17,C  15)    107.47  0.000004   -0.22    107.25   
   178. D(H  21,C  19,N  17,C  18)     49.26  0.000008   -0.22     49.04   
   179. D(H  21,C  19,N  17,C  15)   -133.65  0.000001   -0.22   -133.87   
   180. D(H  20,C  19,N  17,C  18)    169.01  0.000045   -0.24    168.77   
   181. D(H  20,C  19,N  17,C  15)    -13.90  0.000037   -0.23    -14.13   
    ----------------------------------------------------------------------------

Geometry step timings:
Preparation and reading OPT file:      0.001 s ( 7.496 %)
Internal coordinates            :      0.000 s ( 0.149 %)
B/P matrices and projection     :      0.002 s (14.112 %)
Hessian update/contruction      :      0.007 s (41.009 %)
Making the step                 :      0.002 s ( 9.735 %)
Converting the step to Cartesian:      0.000 s ( 1.029 %)
Storing new data                :      0.001 s ( 5.965 %)
Checking convergence            :      0.000 s ( 0.112 %)
Final printing                  :      0.003 s (20.381 %)
Total time                      :      0.016 s

Time for energy+gradient        :    853.911 s
Time for complete geometry iter :    854.007 s

         *************************************************************
         *                GEOMETRY OPTIMIZATION CYCLE   6            *
         *************************************************************
---------------------------------
CARTESIAN COORDINATES (ANGSTROEM)
---------------------------------
  C     -3.076231   -0.660201   -0.040803
  C     -2.660189   -1.736080   -0.813338
  C     -1.335796   -1.813448   -1.182901
  C     -2.172448    0.346247    0.351679
  C     -0.797410    0.304003    0.004448
  O     -2.605790    1.345588    1.153260
  C     -0.392399   -0.814630   -0.786162
  C      0.939015   -0.942538   -1.194839
  C      1.872235    0.007697   -0.829579
  C      0.185420    1.274701    0.366551
  C      1.521240    1.134260   -0.047536
  N     -0.125108    2.391277    1.128212
  C      0.813282    3.330757    1.479974
  C      2.114786    3.202039    1.083829
  C      2.499553    2.100998    0.308639
  C     -3.887321    1.918649    0.949538
  O     -4.409159    1.885719   -0.144238
  N     -4.332237    2.486356    2.067892
  C     -5.564824    3.267646    2.022816
  C     -3.650736    2.449305    3.360385
  H     -2.866637    1.701737    3.362879
  H     -4.382957    2.200202    4.128523
  H     -3.224129    3.429221    3.583308
  H     -5.963864    3.263894    1.014552
  H     -5.353965    4.293088    2.331160
  H     -6.294068    2.834481    2.708815
  H     -0.974994   -2.640967   -1.778614
  H     -4.100174   -0.593307    0.293510
  H     -3.364838   -2.501998   -1.102720
  H      1.229265   -1.792196   -1.797316
  H      2.902811   -0.099136   -1.142599
  H      0.445024    4.152311    2.074094
  H      2.828800    3.958992    1.374583
  H      3.517192    1.973133   -0.028133
  H     -1.072279    2.512982    1.441940

----------------------------
CARTESIAN COORDINATES (A.U.)
----------------------------
  NO LB      ZA    FRAG     MASS         X           Y           Z
   0 C     6.0000    0    12.011   -5.813233   -1.247600   -0.077107
   1 C     6.0000    0    12.011   -5.027029   -3.280716   -1.536986
   2 C     6.0000    0    12.011   -2.524288   -3.426920   -2.235358
   3 C     6.0000    0    12.011   -4.105332    0.654312    0.664577
   4 C     6.0000    0    12.011   -1.506887    0.574483    0.008406
   5 O     8.0000    0    15.999   -4.924230    2.542794    2.179346
   6 C     6.0000    0    12.011   -0.741528   -1.539428   -1.485630
   7 C     6.0000    0    12.011    1.774481   -1.781138   -2.257918
   8 C     6.0000    0    12.011    3.538011    0.014545   -1.567678
   9 C     6.0000    0    12.011    0.350392    2.408836    0.692681
  10 C     6.0000    0    12.011    2.874727    2.143441   -0.089830
  11 N     7.0000    0    14.007   -0.236419    4.518858    2.132011
  12 C     6.0000    0    12.011    1.536880    6.294218    2.796745
  13 C     6.0000    0    12.011    3.996366    6.050977    2.048140
  14 C     6.0000    0    12.011    4.723471    3.970311    0.583244
  15 C     6.0000    0    12.011   -7.345972    3.625721    1.794366
  16 O     8.0000    0    15.999   -8.332103    3.563492   -0.272571
  17 N     7.0000    0    14.007   -8.186742    4.698532    3.907750
  18 C     6.0000    0    12.011  -10.515994    6.174956    3.822568
  19 C     6.0000    0    12.011   -6.898891    4.628515    6.350208
  20 H     1.0000    0     1.008   -5.417160    3.215817    6.354920
  21 H     1.0000    0     1.008   -8.282588    4.157779    7.801777
  22 H     1.0000    0     1.008   -6.092720    6.480289    6.771472
  23 H     1.0000    0     1.008  -11.270069    6.167865    1.917226
  24 H     1.0000    0     1.008  -10.117528    8.112760    4.405254
  25 H     1.0000    0     1.008  -11.894065    5.356392    5.118918
  26 H     1.0000    0     1.008   -1.842472   -4.990705   -3.361093
  27 H     1.0000    0     1.008   -7.748206   -1.121187    0.554654
  28 H     1.0000    0     1.008   -6.358623   -4.728092   -2.083839
  29 H     1.0000    0     1.008    2.322975   -3.386760   -3.396435
  30 H     1.0000    0     1.008    5.485518   -0.187339   -2.159198
  31 H     1.0000    0     1.008    0.840974    7.846730    3.919470
  32 H     1.0000    0     1.008    5.345658    7.481410    2.597586
  33 H     1.0000    0     1.008    6.646529    3.728681   -0.053163
  34 H     1.0000    0     1.008   -2.026313    4.748848    2.724871

--------------------------------
INTERNAL COORDINATES (ANGSTROEM)
--------------------------------
 C      0   0   0     0.000000000000     0.00000000     0.00000000
 C      1   0   0     1.388313860385     0.00000000     0.00000000
 C      2   1   0     1.377163993147   118.75413243     0.00000000
 C      1   2   3     1.408475361823   121.09928579     0.65340375
 C      4   1   2     1.418831443975   122.16759457   358.80750497
 O      4   1   2     1.352405899640   119.18120741   182.90500077
 C      5   4   1     1.428439173336   115.69312142     0.91406664
 C      7   5   4     1.398585593048   120.21634497   179.27651979
 C      8   7   5     1.381035533189   120.20362397     0.39976396
 C      5   4   1     1.428050080571   125.78153642   180.39831553
 C     10   5   4     1.405563240408   120.76133911   180.64143930
 N     10   5   4     1.386829297765   122.16992922     0.33647490
 C     12  10   5     1.373657221637   122.56982934   180.07304121
 C     13  12  10     1.366532464342   120.79506157     0.13568508
 C     14  13  12     1.400448167140   119.74824119     0.06812394
 C      6   4   1     1.418527920175   120.19027117   319.78047582
 O     16   6   4     1.212330462217   120.49539331   334.47271760
 N     16   6   4     1.330773730013   110.71303750   156.70711507
 C     18  16   6     1.460039942375   118.98496383   172.88389147
 C     18  16   6     1.461627536436   125.20015050   355.87579231
 H     20  18  16     1.083362475454   110.91553345   345.86665912
 H     20  18  16     1.090062125535   108.40453808   226.13475005
 H     20  18  16     1.091753103230   109.87698381   107.24882695
 H     19  18  16     1.084362586591   109.72592312     0.29967887
 H     19  18  16     1.091360746930   109.32723155   239.95442336
 H     19  18  16     1.090881409825   109.41768013   120.72262612
 H      3   2   1     1.081591777094   120.76941312   179.57049091
 H      1   2   3     1.079212813663   120.31396497   182.25763823
 H      2   1   3     1.080232955178   120.20219702   179.09188012
 H      8   7   5     1.081269636061   119.35529109   180.31753770
 H      9   8   7     1.082350447828   119.93465680   179.58350823
 H     13  12  10     1.078676847334   115.38655452   180.00106668
 H     14  13  12     1.080431683842   119.03920052   179.85350177
 H     15  14  13     1.079515354967   121.65504236   179.47168059
 H     12  10   5     1.005171827453   118.67834292     0.64847008

---------------------------
INTERNAL COORDINATES (A.U.)
---------------------------
 C      0   0   0     0.000000000000     0.00000000     0.00000000
 C      1   0   0     2.623532984056     0.00000000     0.00000000
 C      2   1   0     2.602462788546   118.75413243     0.00000000
 C      1   2   3     2.661632700222   121.09928579     0.65340375
 C      4   1   2     2.681202859309   122.16759457   358.80750497
 O      4   1   2     2.555676772218   119.18120741   182.90500077
 C      5   4   1     2.699358836570   115.69312142     0.91406664
 C      7   5   4     2.642943745709   120.21634497   179.27651979
 C      8   7   5     2.609778938941   120.20362397     0.39976396
 C      5   4   1     2.698623557804   125.78153642   180.39831553
 C     10   5   4     2.656129588278   120.76133911   180.64143930
 N     10   5   4     2.620727567275   122.16992922     0.33647490
 C     12  10   5     2.595835950777   122.56982934   180.07304121
 C     13  12  10     2.582372110720   120.79506157     0.13568508
 C     14  13  12     2.646463500647   119.74824119     0.06812394
 C      6   4   1     2.680629282451   120.19027117   319.78047582
 O     16   6   4     2.290972557401   120.49539331   334.47271760
 N     16   6   4     2.514797895941   110.71303750   156.70711507
 C     18  16   6     2.759075635675   118.98496383   172.88389147
 C     18  16   6     2.762075753661   125.20015050   355.87579231
 H     20  18  16     2.047258382375   110.91553345   345.86665912
 H     20  18  16     2.059918886221   108.40453808   226.13475005
 H     20  18  16     2.063114370964   109.87698381   107.24882695
 H     19  18  16     2.049148318527   109.72592312     0.29967887
 H     19  18  16     2.062372925009   109.32723155   239.95442336
 H     19  18  16     2.061467109156   109.41768013   120.72262612
 H      3   2   1     2.043912247408   120.76941312   179.57049091
 H      1   2   3     2.039416658042   120.31396497   182.25763823
 H      2   1   3     2.041344446123   120.20219702   179.09188012
 H      8   7   5     2.043303489079   119.35529109   180.31753770
 H      9   8   7     2.045345927322   119.93465680   179.58350823
 H     13  12  10     2.038403828463   115.38655452   180.00106668
 H     14  13  12     2.041719988873   119.03920052   179.85350177
 H     15  14  13     2.039988378250   121.65504236   179.47168059
 H     12  10   5     1.899499471420   118.67834292     0.64847008

------------------------------------------------------------------------------
                   ___                                                        
                  /   \      - P O W E R E D   B Y -                         
                 /     \                                                     
                 |  |  |   _    _      __       _____    __    __             
                 |  |  |  | |  | |    /  \     |  _  \  |  |  /  |          
                  \  \/   | |  | |   /    \    | | | |  |  | /  /          
                 / \  \   | |__| |  /  /\  \   | |_| |  |  |/  /          
                |  |  |   |  __  | /  /__\  \  |    /   |      \           
                |  |  |   | |  | | |   __   |  |    \   |  |\   \          
                \     /   | |  | | |  |  |  |  | |\  \  |  | \   \       
                 \___/    |_|  |_| |__|  |__|  |_| \__\ |__|  \__/        
                                                                              
                      - O R C A' S   B I G   F R I E N D -                    
                                      &                                       
                       - I N T E G R A L  F E E D E R -                       
                                                                              
 v1 FN, 2020, v2 2021, v3 2022-2024                                           
------------------------------------------------------------------------------


----------------------
SHARK INTEGRAL PACKAGE
----------------------

Number of atoms                             ...     35
Number of basis functions                   ...    570
Number of shells                            ...    260
Maximum angular momentum                    ...      2
Integral batch strategy                     ... SHARK/LIBINT Hybrid
RI-J (if used) integral strategy            ... SPLIT-RIJ (Revised 2003 algorithm where possible)
Printlevel                                  ...      1
Contraction scheme used                     ... SEGMENTED contraction
Prescreening option                         ... SCHWARTZ
   Thresh                                   ... 2.500e-11
   Tcut                                     ... 2.500e-12
   Tpresel                                  ... 2.500e-12 
Coulomb Range Separation                    ... NOT USED
Exchange Range Separation                   ... NOT USED
Multipole approximations                    ... NOT USED
Finite Nucleus Model                        ... NOT USED
CABS basis                                  ... NOT available
Auxiliary Coulomb fitting basis             ... AVAILABLE
   # of basis functions in Aux-J            ...   1145
   # of shells in Aux-J                     ...    375
   Maximum angular momentum in Aux-J        ...      4
Auxiliary J/K fitting basis                 ... NOT available
Auxiliary Correlation fitting basis         ... AVAILABLE
   # of basis functions in Aux-C            ...   1745
   # of shells in Aux-C                     ...    545
   Maximum angular momentum in Aux-C        ...      4
Auxiliary 'external' fitting basis          ... NOT available

Checking pre-screening integrals            ... done (  0.0 sec) Dimension = 260
Check shell pair data                       ... done (  0.0 sec)
Shell pair information
Shell pair cut-off parameter TPreSel        ...   2.5e-12
Total number of shell pairs                 ...     33930
Shell pairs after pre-screening             ...     25287
Total number of primitive shell pairs       ...    111170
Primitive shell pairs kept                  ...     55011
          la=0 lb=0:   7469 shell pairs
          la=1 lb=0:   8326 shell pairs
          la=1 lb=1:   2327 shell pairs
          la=2 lb=0:   4205 shell pairs
          la=2 lb=1:   2345 shell pairs
          la=2 lb=2:    615 shell pairs

Calculating one electron integrals          ... done (  0.1 sec)
Calculating RI/J V-Matrix + Cholesky decomp.... done (  0.2 sec)
Calculating RI/C V-Matrix + Cholesky decomp.... done (  0.5 sec)
Calculating Nuclear repulsion               ... done (  0.0 sec) ENN=   1507.176760536005 Eh

Diagonalization of the overlap matrix:
Smallest eigenvalue                        ... 3.488e-06
Time for diagonalization                   ...    0.029 sec
Threshold for overlap eigenvalues          ... 1.000e-07
Number of eigenvalues below threshold      ... 0
Time for construction of square roots      ...    0.041 sec
Total time needed                          ...    0.079 sec

-------------------
DFT GRID GENERATION
-------------------

General Integration Accuracy     IntAcc      ... 4.388
Radial Grid Type                 RadialGrid  ... OptM3 with GC (2021)
Angular Grid (max. ang.)         AngularGrid ... 4 (Lebedev-302)
Angular grid pruning method      GridPruning ... 4 (adaptive)
Weight generation scheme         WeightScheme... mBecke (2022)
Basis function cutoff            BFCut       ... 1.0000e-11
Integration weight cutoff        WCut        ... 1.0000e-14
Partially contracted basis set               ... off
Rotationally invariant grid construction     ... off
Angular grids for H and He will be reduced by one unit

Total number of grid points                  ...   167572
Total number of batches                      ...     2638
Average number of points per batch           ...       63
Average number of grid points per atom       ...     4788

--------------------
COSX GRID GENERATION
--------------------

GRIDX 1
-------
General Integration Accuracy     IntAcc      ... 3.816
Radial Grid Type                 RadialGrid  ... OptM3 with GC (2021)
Angular Grid (max. ang.)         AngularGrid ... 1 (Lebedev-50)
Angular grid pruning method      GridPruning ... 4 (adaptive)
Weight generation scheme         WeightScheme... mBecke (2022)
Basis function cutoff            BFCut       ... 1.0000e-11
Integration weight cutoff        WCut        ... 1.0000e-14
Partially contracted basis set               ... on
Rotationally invariant grid construction     ... off
Angular grids for H and He will be reduced by one unit

Total number of grid points                  ...    21315
Total number of batches                      ...      185
Average number of points per batch           ...      115
Average number of grid points per atom       ...      609
UseSFitting                                  ... on

GRIDX 2
-------
General Integration Accuracy     IntAcc      ... 4.020
Radial Grid Type                 RadialGrid  ... OptM3 with GC (2021)
Angular Grid (max. ang.)         AngularGrid ... 2 (Lebedev-110)
Angular grid pruning method      GridPruning ... 4 (adaptive)
Weight generation scheme         WeightScheme... mBecke (2022)
Basis function cutoff            BFCut       ... 1.0000e-11
Integration weight cutoff        WCut        ... 1.0000e-14
Partially contracted basis set               ... on
Rotationally invariant grid construction     ... off
Angular grids for H and He will be reduced by one unit

Total number of grid points                  ...    46394
Total number of batches                      ...      377
Average number of points per batch           ...      123
Average number of grid points per atom       ...     1326
UseSFitting                                  ... on

GRIDX 3
-------
General Integration Accuracy     IntAcc      ... 4.338
Radial Grid Type                 RadialGrid  ... OptM3 with GC (2021)
Angular Grid (max. ang.)         AngularGrid ... 3 (Lebedev-194)
Angular grid pruning method      GridPruning ... 4 (adaptive)
Weight generation scheme         WeightScheme... mBecke (2022)
Basis function cutoff            BFCut       ... 1.0000e-11
Integration weight cutoff        WCut        ... 1.0000e-14
Partially contracted basis set               ... on
Rotationally invariant grid construction     ... off
Angular grids for H and He will be reduced by one unit

Total number of grid points                  ...   101604
Total number of batches                      ...      811
Average number of points per batch           ...      125
Average number of grid points per atom       ...     2903
UseSFitting                                  ... on
Initializing property integral containers    ... done (  0.0 sec)

SHARK setup successfully completed in   6.7 seconds

Maximum memory used throughout the entire STARTUP-calculation: 107.5 MB
Occupation numbers will be reassigned to an Aufbau configuration
             **** ENERGY FILE WAS UPDATED (HBQ-H.en.tmp) ****
Finished Guess after   1.3 sec
Maximum memory used throughout the entire GUESS-calculation: 68.9 MB
--------------------
CPCM SOLVATION MODEL
--------------------
CPCM parameters:
  Epsilon                                         ...      80.1510
  Refrac                                          ...       1.3328
  Rsolv                                           ...       1.3000
  Surface type                                    ... GAUSSIAN VDW
  Discretization scheme                           ... Constant charge density
    Threshold for H atoms                         ...       5.0000 (charges/Ang^2)
    Threshold for non-H atoms                     ...       5.0000 (charges/Ang^2)
  Epsilon function type                           ...         CPCM
Solvent:                                          ... WATER
Radii:
  Scheme                                          ... Element-dependent radii
  Radius for C  used is    3.8550 Bohr (=   2.0400 Ang.)
  Radius for O  used is    3.4469 Bohr (=   1.8240 Ang.)
  Radius for N  used is    3.5149 Bohr (=   1.8600 Ang.)
  Radius for H  used is    2.4944 Bohr (=   1.3200 Ang.)
Calculating surface                               ...        done! (  0.0s)
Cavity surface points                             ...         3046
Cavity Volume                                     ...    2130.3427
Cavity Surface-area                               ...    1085.5880
Calculating surface distance matrix               ...        done! (  0.0s)
Performing Cholesky decomposition & store         ...        done! (  2.0s)
Overall time for CPCM initialization              ...                 2.1s

----------------------------------------D-I-I-S--------------------------------------------
Iteration    Energy (Eh)           Delta-E    RMSDP     MaxDP     DIISErr   Damp  Time(sec)
-------------------------------------------------------------------------------------------
               ***  Starting incremental Fock matrix formation  ***
                              *** Initializing SOSCF ***
---------------------------------------S-O-S-C-F--------------------------------------
Iteration    Energy (Eh)           Delta-E    RMSDP     MaxDP     MaxGrad    Time(sec)
--------------------------------------------------------------------------------------
    1    -878.3703601380434520     0.00e+00  5.49e-05  2.66e-03  7.08e-05    37.6
               *** Restarting incremental Fock matrix formation ***
    2    -878.3703865561315069    -2.64e-05  1.45e-05  6.15e-04  8.99e-05    38.6
    3    -878.3703892846810959    -2.73e-06  3.31e-06  1.84e-04  2.19e-05    22.7
    4    -878.3703892371208894     4.76e-08  2.03e-06  1.45e-04  5.11e-05    19.3
    5    -878.3703893510078160    -1.14e-07  7.06e-06  7.53e-04  4.79e-06    17.8
    6    -878.3703893439214880     7.09e-09  2.52e-06  1.91e-04  3.93e-06    16.0
                 **** Energy Check signals convergence ****

               *****************************************************
               *                     SUCCESS                       *
               *           SCF CONVERGED AFTER   6 CYCLES          *
               *****************************************************

Recomputing exchange energy using gridx3       ... done (   57.921 sec)
Old exchange energy                            :    -23.567467627 Eh
New exchange energy                            :    -23.567446534 Eh
Exchange energy change after final integration :      0.000021093 Eh
Total energy after final integration           :   -878.370368251 Eh
             **** ENERGY FILE WAS UPDATED (HBQ-H.en.tmp) ****

----------------
TOTAL SCF ENERGY
----------------

Total Energy       :       -878.37036825085534 Eh          -23901.67286 eV

Components:
Nuclear Repulsion  :       1507.17676053600508 Eh           41012.36468 eV
Electronic Energy  :      -2385.46007694425089 Eh          -64911.66874 eV
One Electron Energy:      -4166.01311476793126 Eh         -113362.98012 eV
Two Electron Energy:       1780.55303782368037 Eh           48451.31138 eV
CPCM Dielectric    :         -0.08707293567589 Eh              -2.36938 eV

Virial components:
Potential Energy   :      -1752.80862830632577 Eh          -47696.34761 eV
Kinetic Energy     :        874.43826005547055 Eh           23794.67475 eV
Virial Ratio       :          2.00449672478322

DFT components:
N(Alpha)           :       69.999982432369 electrons
N(Beta)            :       69.999982432369 electrons
N(Total)           :      139.999964864739 electrons
E(X)               :      -93.697419513069 Eh       
E(C)               :       -5.639046957241 Eh       
E(XC)              :      -99.336466470310 Eh       

CPCM Solvation Model Properties:
Surface-charge          :         -1.02879304061078
Corrected charge        :         -1.00000000000000
Outlying charge corr.   :          0.00004607918100 Eh               0.00125 eV
Free-energy (cav+disp)  :  This term is not implemented in the current solvation scheme

---------------
SCF CONVERGENCE
---------------

  Last Energy change         ...   -7.0863e-09  Tolerance :   1.0000e-08
  Last MAX-Density change    ...    1.9121e-04  Tolerance :   1.0000e-07
  Last RMS-Density change    ...    2.5237e-06  Tolerance :   5.0000e-09
  Last DIIS Error            ...    1.7898e-03  Tolerance :   5.0000e-07
  Last Orbital Gradient      ...    3.9287e-06  Tolerance :   1.0000e-05
  Last Orbital Rotation      ...    8.9221e-06  Tolerance :   1.0000e-05


Total SCF time: 0 days 0 hours 3 min 33 sec 
Finished LeanSCF after 214.0 sec

Maximum memory used throughout the entire LEANSCF-calculation: 131.2 MB

------------------------------------------------------------------------------
                         ORCA PROPERTY INTEGRAL CALCULATIONS
------------------------------------------------------------------------------

GBWName                                   ... HBQ-H.gbw
Number of atoms                           ...     35
Number of basis functions                 ...    570
Max core memory                           ...   1024 MB

Dipole integrals                          ... YES
Quadrupole integrals                      ...  NO
Linear momentum integrals                 ... YES
Angular momentum integrals                ... YES
Higher moments length integrals           ...  NO
Higher moments velocity integrals         ...  NO
Kinetic energy integrals                  ...  NO
GIAO right hand sides                     ...  NO
GIAO dipole derivative integrals          ...  NO
SOC integrals                             ...  NO
EPR diamagnetic integrals (GIAO)          ...  NO
EPR gauge integrals                       ...  NO
Field gradient integrals                  ...  NO (   0 nuclei)
Spin-dipole/Fermi contact integrals       ...  NO (   0 nuclei)
Contact density integrals                 ...  NO (   0 nuclei)
Nucleus-orbit integrals                   ...  NO (   0 nuclei)
Geometric perturbations                   ...  NO (  35 nuclei)

Choice of electric origin   ... Center of mass
Position of electric origin ... ( -2.5790,  2.1454,  0.9753) 
Choice of magnetic origin   ... GIAO
Position of magnetic origin ... (  0.0000,  0.0000,  0.0000) 

Calculating integrals                     ... Electric Dipole (Length)     done (  0.1 sec)
Calculating integrals                     ... Linear Momentum              done (  0.1 sec)
Calculating integrals                     ... Angular Momentum  (ElOri)    done (  0.2 sec)

Property integrals calculated in   0.4 sec

Maximum memory used throughout the entire PROPINT-calculation: 71.3 MB
------------------------------------------------------------------------------
                        ORCA TD-DFT/TDA CALCULATION
------------------------------------------------------------------------------

Input orbitals are from        ... HBQ-H.gbw
CI-vector output               ... HBQ-H.cis
Solver                         ... FN-2001
Tamm-Dancoff approximation     ... operative
CIS-Integral strategy          ... AO-integrals
Integral handling              ... AO integral Direct
Max. core memory used          ... 512 MB
Reference state                ... RHF
Generation of triplets         ... off
Follow IRoot                   ... off
Number of operators            ... 1
Orbital ranges used for CIS calculation:
 Operator 0:  Orbitals  20... 69  to  70...569
XAS localization array:
 Operator 0:  Orbitals  -1... -1

-------------------
XC-INTEGRATION GRID
-------------------

General Integration Accuracy     IntAcc      ... 3.467
Radial Grid Type                 RadialGrid  ... OptM3 with GC (2021)
Angular Grid (max. ang.)         AngularGrid ... 1 (Lebedev-50)
Angular grid pruning method      GridPruning ... 4 (adaptive)
Weight generation scheme         WeightScheme... mBecke (2022)
Basis function cutoff            BFCut       ... 1.0000e-11
Integration weight cutoff        WCut        ... 1.0000e-14
Partially contracted basis set               ... off
Rotationally invariant grid construction     ... off
Angular grids for H and He will be reduced by one unit

Total number of grid points                  ...    24527
Total number of batches                      ...      400
Average number of points per batch           ...       61
Average number of grid points per atom       ...      701

---------------------
COSX-INTEGRATION GRID
---------------------

General Integration Accuracy     IntAcc      ... 3.067
Radial Grid Type                 RadialGrid  ... OptM3 with GC (2021)
Angular Grid (max. ang.)         AngularGrid ... 1 (Lebedev-50)
Angular grid pruning method      GridPruning ... 4 (adaptive)
Weight generation scheme         WeightScheme... mBecke (2022)
Basis function cutoff            BFCut       ... 1.0000e-11
Integration weight cutoff        WCut        ... 1.0000e-14
Partially contracted basis set               ... on
Rotationally invariant grid construction     ... off
Angular grids for H and He will be reduced by one unit

Total number of grid points                  ...    11332
Total number of batches                      ...      112
Average number of points per batch           ...      101
Average number of grid points per atom       ...      324

---------------
TD-DFT XC SETUP
---------------

DFT calculation                         ... on
Name of the grid file                   ... HBQ-H.grid_cis.tmp
RI-approximation                        ... on
Aux-basis dimension                     ... 1745
Exchange functional (TD-DFT)            ... B88
   X-Alpha parameter    XAlpha (TD-DFT) ...  0.666667
   Becke's b parameter  XBeta (TD-DFT)  ...  0.004200
Correlation functional (TD-DFT)         ... LYP
 LDA part of GGA corr.  LDAOpt (TD-DFT) ... VWN-5
Hybrid DFT                              ... on
   Exchange mixing (TD-DFT)             ...  0.200
   GGA exch. scaling (TD-DFT)           ...  0.720
   GGA corr. scaling (TD-DFT)           ...  0.810

Building densities             ... done
Calculating rho(r) on the grid ... done
Building xc-kernel on the grid ... done
                    *** TD-DFT CALCULATION INITIALIZED ***

-----------------------------
    LR-CPCM (equilibrium)
-----------------------------

Setting up LR-CPCM             ... done

------------------------
DAVIDSON-DIAGONALIZATION
------------------------

Dimension of the eigenvalue problem            ...  25000
Number of roots to be determined               ...      1
Maximum size of the expansion space            ...     10
Maximum number of iterations                   ...    100
Convergence tolerance for the residual         ...    2.500e-07
Convergence tolerance for the energies         ...    2.500e-07
Orthogonality tolerance                        ...    1.000e-14
Level Shift                                    ...    0.000e+00
Constructing the preconditioner                ... o.k.
Building the initial guess                     ... o.k.
Number of trial vectors determined             ...     10


                       ****Iteration    0****
   Time for iteration     :  TOTAL=21.3 TRAFO=0.0 RIJ=3.4 COSX=8.1 XC=1.5
   Size of expansion space: 3
   Lowest Energy          :     0.117873263840
   Maximum Energy change  :     0.117873263840 (vector 0)
   Maximum residual norm  :     0.010499655103

                       ****Iteration    1****
   Time for iteration     :  TOTAL=16.3 TRAFO=0.0 RIJ=2.5 COSX=6.8 XC=0.5
   Size of expansion space: 4
   Lowest Energy          :     0.107231230525
   Maximum Energy change  :     0.010642033315 (vector 0)
   Maximum residual norm  :     0.000215659490

                       ****Iteration    2****
   Time for iteration     :  TOTAL=16.4 TRAFO=0.0 RIJ=2.5 COSX=6.9 XC=0.5
   Size of expansion space: 5
   Lowest Energy          :     0.106973318720
   Maximum Energy change  :     0.000257911805 (vector 0)
   Maximum residual norm  :     0.000034585514

                       ****Iteration    3****
   Time for iteration     :  TOTAL=16.5 TRAFO=0.0 RIJ=2.6 COSX=6.9 XC=0.5
   Size of expansion space: 6
   Lowest Energy          :     0.106914735746
   Maximum Energy change  :     0.000058582974 (vector 0)
   Maximum residual norm  :     0.000004825149

                       ****Iteration    4****
   Time for iteration     :  TOTAL=16.9 TRAFO=0.2 RIJ=2.5 COSX=7.0 XC=0.5
   Size of expansion space: 7
   Lowest Energy          :     0.106909493703
   Maximum Energy change  :     0.000005242043 (vector 0)
   Maximum residual norm  :     0.000000696257

                       ****Iteration    5****
   Time for iteration     :  TOTAL=16.7 TRAFO=0.0 RIJ=2.7 COSX=7.0 XC=0.5
   Size of expansion space: 8
   Lowest Energy          :     0.106908707307
   Maximum Energy change  :     0.000000786395 (vector 0)
   Maximum residual norm  :     0.000000052519

      *** CONVERGENCE OF RESIDUAL NORM REACHED ***

Storing the converged CI vectors               ... HBQ-H.cis1

                 *** DAVIDSON DONE ***

Total time for solving the CIS problem:   104.799sec

------------------------------------
TD-DFT/TDA EXCITED STATES (SINGLETS)
------------------------------------

the weight of the individual excitations are printed if larger than 1.0e-02

STATE  1:  E=   0.106909 au      2.909 eV    23463.7 cm**-1 <S**2> =   0.000000 Mult 1
    67a ->  71a  :     0.014066 (c=  0.11860104)
    69a ->  70a  :     0.966127 (c= -0.98291740)


-----------------------------
TD-DFT/TDA-EXCITATION SPECTRA
-----------------------------

Center of mass = ( -2.5790,  2.1454,  0.9753)
Generating CIS transition densities           ... done

----------------------------------------------------------------------------------------------------
                     ABSORPTION SPECTRUM VIA TRANSITION ELECTRIC DIPOLE MOMENTS    
----------------------------------------------------------------------------------------------------
     Transition      Energy     Energy  Wavelength fosc(D2)      D2        DX        DY        DZ   
                      (eV)      (cm-1)    (nm)                 (au**2)    (au)      (au)      (au)  
----------------------------------------------------------------------------------------------------
  0-1A  ->  1-1A    2.909134   23463.7   426.2   0.253334876   3.55446   1.65434   0.88962   0.16182

----------------------------------------------------------------------------------------------------
                     ABSORPTION SPECTRUM VIA TRANSITION VELOCITY DIPOLE MOMENTS    
----------------------------------------------------------------------------------------------------
     Transition      Energy     Energy  Wavelength fosc(P2)      P2        PX        PY        PZ   
                      (eV)      (cm-1)    (nm)                 (au**2)    (au)      (au)      (au)  
----------------------------------------------------------------------------------------------------
  0-1A  ->  1-1A    2.909134   23463.7   426.2   0.059825373   0.00959  -0.08698  -0.04298  -0.01348

------------------------------------------------------------------------------------------
                     CD SPECTRUM VIA TRANSITION ELECTRIC DIPOLE MOMENTS    
------------------------------------------------------------------------------------------
     Transition      Energy     Energy  Wavelength    R        MX        MY        MZ   
                      (eV)      (cm-1)    (nm)   (1e40*cgs)   (au)      (au)      (au)  
------------------------------------------------------------------------------------------
  0-1A  ->  1-1A    2.909134   23463.7   426.2    1.00988  -0.07099   0.18853  -0.32393

------------------------------------------------------------------------------------------
                     CD SPECTRUM VIA TRANSITION VELOCITY DIPOLE MOMENTS    
------------------------------------------------------------------------------------------
     Transition      Energy     Energy  Wavelength    R        MX        MY        MZ   
                      (eV)      (cm-1)    (nm)   (1e40*cgs)   (au)      (au)      (au)  
------------------------------------------------------------------------------------------
  0-1A  ->  1-1A    2.909134   23463.7   426.2   10.75519  -0.07099   0.18853  -0.32393

Total run time:      106.462 sec

           *** ORCA-CIS/TD-DFT FINISHED WITHOUT ERROR ***
-----------------------
CIS/TD-DFT TOTAL ENERGY
-----------------------

    E(SCF)  =   -878.370368251 Eh
    DE(CIS) =      0.106908707 Eh (Root  1)
    ----------------------------- ---------
    E(tot)  =   -878.263459544 Eh


------------------------
TD-DFT GRADIENT XC SETUP
------------------------

Building densities                     ... done
Calculating rho(r) on the grid         ... done
Building xc-kernel on the grid         ... done
Building xc 3rd derivative on the grid ... done
                *** TD-DFT GRADIENT CALCULATION INITIALIZED ***

--------------------------
TD-DFT/TDA RELAXED DENSITY
--------------------------

Reference wavefunction             ... RHF
State of interest                  ... 1
Basis dimension                    ... 570
DFT-XC contribution needed         ... YES
RI-approximation                   ... YES
Do Coulomb                         ... YES
Do Exchange                        ... YES
Need Hartree-Fock Exchange         ... YES
facj, facx                         ...  2.000, -0.200
Conventional                       ... NO
Range separation                   ... NO
Triplet state                      ... NO
Spin Flip                          ... NO
CIS-vectors being read from        ... HBQ-H.cis
 => Number of Vectors found: 1
 => Orbital Window: 20...69 -> 70...569

Reading the CIS file                     ... done
Norm of the CI vector                    ... 1.000000000
Reading the CPCM file                    ... done
Making the CIS (pseudo)densities         ... done
Making operators G(D) and Q(T)           ... (SHARK-ok)done
Transforming the Fock operators          ... done
Making the frozen-core relaxed density   ... done
Constructing the G(H) operator           ... (SHARK-ok)done
Transforming the G(H) operator           ... done
Calculating the CIS Lagrangian           ... done
Solving the Z-vector equations           ... 

Using XC Grid                  ... (HBQ-H.grid_cpscf.tmp) 
Recalculating density on grid  ... (HBQ-H.grho_cpscf0.tmp) done
Calculating the xc-kernel      ... (HBQ-H.fxc_cpscf0.tmp) done

-------------------
SHARK CP-SCF DRIVER
-------------------

Dimension of the orbital basis          ...    570
Dimension of the CPSCF-problem          ...  35000
Number of operators                     ...      1
Max. number of iterations               ...    128
Convergence Tolerance                   ... 1.0e-04
Number of perturbations                 ...      1
Perturbation type                       ... REAL

----------------------------
POPLE LINEAR EQUATION SOLVER
----------------------------

  ITERATION   0:   ||err||_max =   1.6765e+00 (  16.3 sec)
  ITERATION   1:   ||err||_max =   8.9221e-02 (  17.0 sec)
  ITERATION   2:   ||err||_max =   1.8877e-02 (  19.5 sec)
  ITERATION   3:   ||err||_max =   6.3343e-03 (  16.5 sec)
  ITERATION   4:   ||err||_max =   2.3597e-03 (  16.5 sec)
  ITERATION   5:   ||err||_max =   1.0332e-03 (  16.5 sec)
  ITERATION   6:   ||err||_max =   3.0738e-04 (  16.5 sec)
  ITERATION   7:   ||err||_max =   1.3216e-04 (  16.6 sec)
  ITERATION   8:   ||err||_max =   3.4371e-05 (  16.6 sec)

Finalizing the relaxed density           ... done
Storing the relaxed density              ... done
Constructing the G(Z) operator           ... (SHARK-ok)done
Adding the CPCM contribution             ... done
Adding the XC terms                      ... done
Transforming the G(Z) operator           ... done
Making the W-matrix                      ... done
Finalizing the W-matrix                  ... done
Transforming the W-matrix                ... done
Nuc. rep. gradient        (SHARK) ... done (  0.0 sec)
HCore & Overlap gradient  (SHARK) ... done (  2.0 sec)
Split-RIJ-J gradient      (SHARK) ... done ( 11.6 sec)
COSX-gradient                     ... done (112.4 sec)
CPCM gradient                     ... done (  9.5 sec)
Dispersion correction             ... done (  0.0 sec)

-------------------
DISPERSION GRADIENT
-------------------

   1   C   :   -0.000565180   -0.000588620   -0.000113148
   2   C   :   -0.000486466   -0.000673823   -0.000244852
   3   C   :   -0.000232315   -0.000731086   -0.000384832
   4   C   :   -0.000444400   -0.000287952   -0.000048294
   5   C   :   -0.000006004   -0.000221264   -0.000068478
   6   O   :   -0.000240624    0.000051177    0.000102189
   7   C   :    0.000139650   -0.000568035   -0.000370312
   8   C   :    0.000578110   -0.000524637   -0.000463754
   9   C   :    0.000703383   -0.000374546   -0.000400437
  10   C   :    0.000263817    0.000258107    0.000111293
  11   C   :    0.000659353    0.000046840   -0.000129089
  12   N   :    0.000202415    0.000587439    0.000296325
  13   C   :    0.000203212    0.000702535    0.000369036
  14   C   :    0.000450939    0.000563774    0.000236552
  15   C   :    0.000743768    0.000359213    0.000040081
  16   C   :   -0.000586263    0.000236459   -0.000213492
  17   O   :   -0.000444211    0.000236372   -0.000492477
  18   N   :   -0.000383849    0.000287271    0.000255235
  19   C   :   -0.000469686    0.000299647    0.000035648
  20   C   :   -0.000081000    0.000114442    0.000688261
  21   H   :    0.000002681   -0.000029322    0.000445455
  22   H   :   -0.000009239   -0.000037985    0.000331120
  23   H   :    0.000066684    0.000162761    0.000336337
  24   H   :   -0.000238586    0.000133548   -0.000088101
  25   H   :   -0.000194422    0.000266088    0.000026045
  26   H   :   -0.000307133    0.000075392    0.000083208
  27   H   :   -0.000000651   -0.000334253   -0.000205893
  28   H   :   -0.000324490   -0.000235024   -0.000003809
  29   H   :   -0.000216123   -0.000257185   -0.000098797
  30   H   :    0.000214732   -0.000258166   -0.000213229
  31   H   :    0.000335241   -0.000138250   -0.000165896
  32   H   :   -0.000014252    0.000304796    0.000181273
  33   H   :    0.000210430    0.000232411    0.000091843
  34   H   :    0.000375892    0.000069875   -0.000050299
  35   H   :    0.000094583    0.000272002    0.000125288

Difference to translation invariance:
           :   -0.0000000000    0.0000000000   -0.0000000000

Difference to rotation invariance:
           :   -0.0000000000    0.0000000000    0.0000000000

Norm of the Dispersion gradient    ...    0.0034218927
RMS gradient                       ...    0.0003339425
MAX gradient                       ...    0.0007437677

                 ---------------------------
                 EXCITED STATE GRADIENT DONE
                 ---------------------------

------------------
CARTESIAN GRADIENT
------------------

   1   C   :   -0.000107980   -0.000000245    0.000023343
   2   C   :    0.000128101    0.000088718    0.000031784
   3   C   :   -0.000002205    0.000016989    0.000040662
   4   C   :   -0.000189806    0.000010434    0.000144908
   5   C   :    0.000225247   -0.000100699   -0.000089855
   6   O   :   -0.000161917   -0.000085593   -0.000171067
   7   C   :    0.000001192   -0.000027219    0.000002945
   8   C   :    0.000058185   -0.000020953   -0.000027768
   9   C   :   -0.000091481    0.000062903    0.000062422
  10   C   :   -0.000224612    0.000107626    0.000117497
  11   C   :    0.000073837   -0.000110031   -0.000103452
  12   N   :    0.000165200    0.000163285    0.000061001
  13   C   :   -0.000009642   -0.000062688   -0.000080716
  14   C   :   -0.000009775   -0.000009422   -0.000030049
  15   C   :    0.000031392    0.000032588   -0.000013592
  16   C   :    0.000307155    0.000110728    0.000134865
  17   O   :   -0.000108958   -0.000064476   -0.000058844
  18   N   :   -0.000048924    0.000049347   -0.000018220
  19   C   :   -0.000020940   -0.000011740    0.000021406
  20   C   :   -0.000053390   -0.000073601    0.000116052
  21   H   :    0.000040986    0.000027457   -0.000006303
  22   H   :    0.000018574   -0.000002872    0.000003164
  23   H   :   -0.000006641    0.000035274   -0.000058232
  24   H   :    0.000012218   -0.000027994    0.000006980
  25   H   :    0.000009935    0.000011152   -0.000002756
  26   H   :    0.000006265    0.000004235    0.000023113
  27   H   :   -0.000016030   -0.000017681    0.000016569
  28   H   :    0.000007843   -0.000026205    0.000025800
  29   H   :   -0.000006788   -0.000028122    0.000026632
  30   H   :   -0.000057446   -0.000033564    0.000018413
  31   H   :    0.000015129    0.000042666    0.000012525
  32   H   :   -0.000009901    0.000007362   -0.000005381
  33   H   :   -0.000003885    0.000017682   -0.000030632
  34   H   :   -0.000007421   -0.000001987   -0.000034899
  35   H   :   -0.000057942   -0.000117781   -0.000082626

Difference to translation invariance:
           :   -0.0000944245   -0.0000344271    0.0000756870

Difference to rotation invariance:
           :   -0.0015742456    0.0022553762    0.0006741152

Norm of the Cartesian gradient     ...    0.0008028865
RMS gradient                       ...    0.0000783537
MAX gradient                       ...    0.0003071552

------------------------------------------------------------------------------
                  RELAXED CIS/TDA DENSITY POPULATION ANALYSIS
                                   IROOT 1
------------------------------------------------------------------------------
------------------------------------------------------------------------------
                           ORCA POPULATION ANALYSIS
------------------------------------------------------------------------------
Input electron density              ... HBQ-H.cispre.singlet.iroot1
BaseName (.gbw .S,...)              ... HBQ-H

-------
TIMINGS
-------

Total TD-DFT gradient time  ....      476.498 sec

Fock matrix formation       ....     123.999 sec  ( 26.0%)
  Coulomb formation         ....     112.965 sec  ( 91.1% of F)
  XC integration            ....      11.034 sec  (  8.9% of F)
Z-vector equation           ....     153.042 sec  ( 32.1%)
Densities                   ....       0.000 sec  (  0.0%)
One electron gradient       ....       2.042 sec  (  0.4%)
RI-J Coulomb gradient       ....      11.636 sec  (  2.4%)
COSX gradient               ....      26.450 sec  (  5.6%)
XC gradient                 ....     112.403 sec  ( 23.6%)
CPCM gradient               ....       9.531 sec  (  2.0%)
   A-Matrix (El+Nuc)        ....       0.240 sec  (  0.1%)
   Potential                ....       9.290 sec  (  1.9%)

Maximum memory used throughout the entire CIS-calculation: 268.0 MB
=> NOW LEAVING ORCA_CIS


-------------------------------------------------------------------------------
                          DFT DISPERSION CORRECTION                            
                                                                               
                              DFTD3 V3.1  Rev 1                                
                          USING Becke-Johnson damping                          
-------------------------------------------------------------------------------
-------------------------   ----------------
Dispersion correction           -0.077348604
-------------------------   ----------------


-------------------------   --------------------
FINAL SINGLE POINT ENERGY      -878.340808147341
-------------------------   --------------------

------------------------------------------------------------------------------
                         ORCA GEOMETRY RELAXATION STEP
------------------------------------------------------------------------------

Reading the OPT-File                    .... done
Getting information on internals        .... done
Copying old internal coords+grads       .... done
Making the new internal coordinates     .... (2022 redundants) done
Validating the new internal coordinates .... (2022 redundants) done
Calculating the B-matrix                .... done
Calculating the G,G- and P matrices     .... done
Transforming gradient to internals      .... done
Projecting the internal gradient        .... done
Number of atoms                         ....  35
Number of internal coordinates          .... 181
Current Energy                          ....  -878.340808147 Eh
Current gradient norm                   ....     0.000802886 Eh/bohr
Maximum allowed component of the step   ....  0.300
Current trust radius                    ....  0.133
Updating the Hessian (BFGS)             .... done
Forming the augmented Hessian           .... done
Diagonalizing the augmented Hessian     .... done
Last element of RFO vector              ....  0.999916035
Lowest eigenvalues of augmented Hessian:
 -0.000001617  0.003111418  0.015701579  0.017618631  0.020045010
Length of the computed step             ....  0.012959626
The final length of the internal step   ....  0.012959626
Converting the step to Cartesian space:
 Initial RMS(Int)=    0.0009632814
Transforming coordinates:
 Iter   0:  RMS(Cart)=    0.0040373628 RMS(Int)=    0.4670241013
done
Storing new coordinates                 .... done
The predicted energy change is          ....    -0.000000808
Previously predicted energy change      ....    -0.000001046
Actually observed energy change         ....    -0.000001720
Ratio of predicted to observed change   ....     1.644709878
New trust radius                        ....     0.100000000

                                .--------------------.
          ----------------------|Geometry convergence|-------------------------
          Item                value                   Tolerance       Converged
          ---------------------------------------------------------------------
          Energy change      -0.0000017198            0.0000050000      YES
          RMS gradient        0.0000416012            0.0001000000      YES
          MAX gradient        0.0002142815            0.0003000000      YES
          RMS step            0.0009632814            0.0020000000      YES
          MAX step            0.0041920526            0.0040000000      NO
          ........................................................
          Max(Bonds)      0.0005      Max(Angles)    0.06
          Max(Dihed)        0.24      Max(Improp)    0.00
          ---------------------------------------------------------------------

The optimization has not yet converged - more geometry cycles are needed


    ---------------------------------------------------------------------------
                         Redundant Internal Coordinates
                            (Angstroem and degrees)

        Definition                    Value    dE/dq     Step     New-Value
    ----------------------------------------------------------------------------
     1. B(C   1,C   0)                1.3883 -0.000011  0.0000    1.3883   
     2. B(C   2,C   1)                1.3772 -0.000032  0.0000    1.3772   
     3. B(C   3,C   0)                1.4085 -0.000024  0.0000    1.4085   
     4. B(C   4,C   3)                1.4188  0.000214 -0.0003    1.4185   
     5. B(O   5,C   3)                1.3524 -0.000078  0.0003    1.3527   
     6. B(C   6,C   4)                1.4284 -0.000028  0.0001    1.4286   
     7. B(C   6,C   2)                1.4300 -0.000068  0.0001    1.4302   
     8. B(C   7,C   6)                1.3986 -0.000011  0.0000    1.3986   
     9. B(C   8,C   7)                1.3810  0.000008  0.0001    1.3811   
    10. B(C   9,C   4)                1.4281  0.000011  0.0000    1.4281   
    11. B(C  10,C   9)                1.4056  0.000078 -0.0001    1.4055   
    12. B(C  10,C   8)                1.4156 -0.000111  0.0002    1.4158   
    13. B(N  11,C   9)                1.3868 -0.000078  0.0001    1.3869   
    14. B(C  12,N  11)                1.3737 -0.000058  0.0001    1.3738   
    15. B(C  13,C  12)                1.3665  0.000011 -0.0000    1.3665   
    16. B(C  14,C  13)                1.4004 -0.000015  0.0000    1.4005   
    17. B(C  14,C  10)                1.4208  0.000013  0.0000    1.4208   
    18. B(C  15,O   5)                1.4185 -0.000128 -0.0001    1.4184   
    19. B(O  16,C  15)                1.2123  0.000108 -0.0000    1.2123   
    20. B(N  17,C  15)                1.3308  0.000037  0.0000    1.3308   
    21. B(C  18,N  17)                1.4600 -0.000020  0.0001    1.4601   
    22. B(C  19,N  17)                1.4616  0.000023  0.0000    1.4616   
    23. B(H  20,C  19)                1.0834  0.000013  0.0000    1.0834   
    24. B(H  21,C  19)                1.0901 -0.000007  0.0000    1.0901   
    25. B(H  22,C  19)                1.0918  0.000006 -0.0000    1.0917   
    26. B(H  23,C  18)                1.0844 -0.000004  0.0000    1.0844   
    27. B(H  24,C  18)                1.0914  0.000013 -0.0000    1.0913   
    28. B(H  25,C  18)                1.0909  0.000001  0.0000    1.0909   
    29. B(H  26,C   2)                1.0816  0.000002 -0.0000    1.0816   
    30. B(H  27,C   0)                1.0792 -0.000008  0.0000    1.0793   
    31. B(H  28,C   1)                1.0802  0.000013 -0.0000    1.0802   
    32. B(H  29,C   7)                1.0813 -0.000000 -0.0000    1.0813   
    33. B(H  30,C   8)                1.0824  0.000011 -0.0000    1.0823   
    34. B(H  31,C  12)                1.0787  0.000009 -0.0000    1.0787   
    35. B(H  32,C  13)                1.0804  0.000005 -0.0000    1.0804   
    36. B(H  33,C  14)                1.0795  0.000005 -0.0000    1.0795   
    37. B(H  34,O   5)                1.9488 -0.000000  0.0005    1.9493   
    38. B(H  34,N  11)                1.0052  0.000013 -0.0000    1.0052   
    39. A(C   1,C   0,H  27)          120.31  0.000032    0.00    120.32   
    40. A(C   1,C   0,C   3)          121.10 -0.000087    0.01    121.11   
    41. A(C   3,C   0,H  27)          118.57  0.000055   -0.01    118.55   
    42. A(C   0,C   1,H  28)          120.20 -0.000045    0.01    120.21   
    43. A(C   0,C   1,C   2)          118.75  0.000100   -0.02    118.74   
    44. A(C   2,C   1,H  28)          121.04 -0.000055    0.01    121.04   
    45. A(C   1,C   2,C   6)          121.38  0.000020   -0.00    121.38   
    46. A(C   1,C   2,H  26)          120.77 -0.000023   -0.00    120.77   
    47. A(C   6,C   2,H  26)          117.85  0.000003    0.00    117.85   
    48. A(C   4,C   3,O   5)          118.53 -0.000038    0.02    118.55   
    49. A(C   0,C   3,C   4)          122.17 -0.000014    0.01    122.18   
    50. A(C   0,C   3,O   5)          119.18  0.000052   -0.03    119.15   
    51. A(C   3,C   4,C   9)          125.78 -0.000029    0.01    125.79   
    52. A(C   6,C   4,C   9)          118.52  0.000010   -0.00    118.52   
    53. A(C   3,C   4,C   6)          115.69  0.000019   -0.01    115.69   
    54. A(C   3,O   5,C  15)          120.19  0.000208   -0.06    120.13   
    55. A(C   2,C   6,C   7)          118.89  0.000005    0.00    118.89   
    56. A(C   4,C   6,C   7)          120.22  0.000033   -0.01    120.21   
    57. A(C   2,C   6,C   4)          120.90 -0.000038    0.00    120.90   
    58. A(C   8,C   7,H  29)          120.44  0.000079   -0.01    120.43   
    59. A(C   6,C   7,H  29)          119.36 -0.000037    0.00    119.36   
    60. A(C   6,C   7,C   8)          120.20 -0.000042    0.01    120.21   
    61. A(C   7,C   8,H  30)          119.93  0.000039   -0.00    119.93   
    62. A(C  10,C   8,H  30)          118.32 -0.000069    0.01    118.33   
    63. A(C   7,C   8,C  10)          121.74  0.000029   -0.00    121.74   
    64. A(C  10,C   9,N  11)          117.07 -0.000015    0.00    117.07   
    65. A(C   4,C   9,C  10)          120.76 -0.000063    0.01    120.77   
    66. A(C   4,C   9,N  11)          122.17  0.000078   -0.01    122.16   
    67. A(C   8,C  10,C  14)          120.62 -0.000034    0.01    120.62   
    68. A(C   9,C  10,C  14)          120.84  0.000002   -0.00    120.83   
    69. A(C   8,C  10,C   9)          118.55  0.000032   -0.00    118.55   
    70. A(C   9,N  11,H  34)          118.68 -0.000155    0.01    118.69   
    71. A(C   9,N  11,C  12)          122.57  0.000020   -0.00    122.57   
    72. A(C  12,N  11,H  34)          118.75  0.000135   -0.01    118.74   
    73. A(N  11,C  12,H  31)          115.39 -0.000016    0.00    115.39   
    74. A(C  13,C  12,H  31)          123.82 -0.000003   -0.00    123.82   
    75. A(N  11,C  12,C  13)          120.80  0.000019   -0.00    120.79   
    76. A(C  12,C  13,H  32)          119.04 -0.000001   -0.00    119.04   
    77. A(C  12,C  13,C  14)          119.75  0.000000    0.00    119.75   
    78. A(C  14,C  13,H  32)          121.21  0.000001    0.00    121.21   
    79. A(C  10,C  14,H  33)          119.36  0.000000   -0.00    119.36   
    80. A(C  10,C  14,C  13)          118.98 -0.000026    0.00    118.99   
    81. A(C  13,C  14,H  33)          121.66  0.000026   -0.00    121.65   
    82. A(O  16,C  15,N  17)          128.75 -0.000056   -0.01    128.74   
    83. A(O   5,C  15,N  17)          110.71  0.000052   -0.01    110.70   
    84. A(O   5,C  15,O  16)          120.50  0.000007    0.01    120.51   
    85. A(C  18,N  17,C  19)          115.75 -0.000011    0.01    115.76   
    86. A(C  15,N  17,C  19)          125.20  0.000019   -0.01    125.19   
    87. A(C  15,N  17,C  18)          118.98 -0.000008    0.01    118.99   
    88. A(H  24,C  18,H  25)          108.94  0.000002   -0.01    108.94   
    89. A(H  23,C  18,H  25)          109.71  0.000019   -0.01    109.71   
    90. A(N  17,C  18,H  25)          109.42  0.000007    0.01    109.42   
    91. A(H  23,C  18,H  24)          109.70  0.000015   -0.01    109.69   
    92. A(N  17,C  18,H  24)          109.33 -0.000009    0.00    109.33   
    93. A(N  17,C  18,H  23)          109.73 -0.000035    0.01    109.74   
    94. A(H  21,C  19,H  22)          108.89  0.000039   -0.01    108.88   
    95. A(H  20,C  19,H  22)          109.64  0.000014    0.00    109.64   
    96. A(N  17,C  19,H  22)          109.88 -0.000099    0.03    109.91   
    97. A(H  20,C  19,H  21)          109.08  0.000008   -0.01    109.07   
    98. A(N  17,C  19,H  21)          108.40  0.000027   -0.01    108.39   
    99. A(N  17,C  19,H  20)          110.92  0.000012   -0.00    110.91   
   100. D(H  28,C   1,C   0,H  27)      1.35  0.000004   -0.01      1.34   
   101. D(C   2,C   1,C   0,C   3)      0.65  0.000005   -0.02      0.64   
   102. D(H  28,C   1,C   0,C   3)    179.75 -0.000001    0.00    179.75   
   103. D(C   2,C   1,C   0,H  27)   -177.74  0.000010   -0.03   -177.77   
   104. D(C   6,C   2,C   1,C   0)      0.08 -0.000005   -0.00      0.08   
   105. D(C   6,C   2,C   1,H  28)   -179.00  0.000001   -0.02   -179.03   
   106. D(H  26,C   2,C   1,H  28)      0.49  0.000005   -0.02      0.47   
   107. D(H  26,C   2,C   1,C   0)    179.57 -0.000001   -0.00    179.57   
   108. D(O   5,C   3,C   0,H  27)      1.33 -0.000006    0.03      1.36   
   109. D(O   5,C   3,C   0,C   1)   -177.09 -0.000001    0.02   -177.07   
   110. D(C   4,C   3,C   0,H  27)    177.23 -0.000004    0.03    177.27   
   111. D(C   4,C   3,C   0,C   1)     -1.19  0.000001    0.03     -1.17   
   112. D(C   6,C   4,C   3,O   5)    176.84  0.000000   -0.01    176.83   
   113. D(C   6,C   4,C   3,C   0)      0.91 -0.000005   -0.01      0.90   
   114. D(C   9,C   4,C   3,O   5)     -3.67 -0.000003   -0.01     -3.68   
   115. D(C   9,C   4,C   3,C   0)   -179.60 -0.000008   -0.01   -179.61   
   116. D(C  15,O   5,C   3,C   4)    143.73  0.000014   -0.24    143.49   
   117. D(C  15,O   5,C   3,C   0)    -40.22  0.000017   -0.23    -40.45   
   118. D(C   7,C   6,C   4,C   9)     -0.25  0.000006   -0.01     -0.26   
   119. D(C   7,C   6,C   4,C   3)    179.28  0.000002   -0.01    179.27   
   120. D(C   2,C   6,C   4,C   9)   -179.70  0.000009   -0.01   -179.71   
   121. D(C   2,C   6,C   4,C   3)     -0.18  0.000006   -0.01     -0.18   
   122. D(C   7,C   6,C   2,H  26)      0.72 -0.000001    0.01      0.73   
   123. D(C   7,C   6,C   2,C   1)   -179.78  0.000003    0.01   -179.76   
   124. D(C   4,C   6,C   2,H  26)   -179.82 -0.000004    0.01   -179.81   
   125. D(C   4,C   6,C   2,C   1)     -0.31 -0.000000    0.02     -0.30   
   126. D(H  29,C   7,C   6,C   4)   -179.68 -0.000006    0.02   -179.66   
   127. D(H  29,C   7,C   6,C   2)     -0.22 -0.000010    0.02     -0.20   
   128. D(C   8,C   7,C   6,C   4)      0.40 -0.000006    0.01      0.41   
   129. D(C   8,C   7,C   6,C   2)    179.87 -0.000010    0.01    179.88   
   130. D(C  10,C   8,C   7,C   6)     -0.42  0.000001   -0.01     -0.42   
   131. D(H  30,C   8,C   7,H  29)     -0.33  0.000003   -0.01     -0.34   
   132. D(H  30,C   8,C   7,C   6)    179.58  0.000003   -0.01    179.58   
   133. D(C  10,C   8,C   7,H  29)    179.67  0.000001   -0.01    179.65   
   134. D(N  11,C   9,C   4,C   6)    179.81 -0.000003   -0.01    179.80   
   135. D(N  11,C   9,C   4,C   3)      0.34  0.000000   -0.01      0.33   
   136. D(C  10,C   9,C   4,C   6)      0.11  0.000000   -0.00      0.11   
   137. D(C  10,C   9,C   4,C   3)   -179.36  0.000004   -0.01   -179.36   
   138. D(C  14,C  10,C   9,N  11)      0.11 -0.000002    0.01      0.12   
   139. D(C  14,C  10,C   9,C   4)    179.82 -0.000005    0.01    179.83   
   140. D(C   8,C  10,C   9,N  11)   -179.83 -0.000002    0.01   -179.82   
   141. D(C   8,C  10,C   9,C   4)     -0.12 -0.000005    0.01     -0.11   
   142. D(C  14,C  10,C   8,H  30)      0.33  0.000003   -0.00      0.33   
   143. D(C  14,C  10,C   8,C   7)   -179.67  0.000005   -0.00   -179.67   
   144. D(C   9,C  10,C   8,H  30)   -179.72  0.000003   -0.00   -179.73   
   145. D(C   9,C  10,C   8,C   7)      0.28  0.000005   -0.01      0.27   
   146. D(H  34,N  11,C   9,C  10)   -179.65 -0.000005    0.04   -179.61   
   147. D(H  34,N  11,C   9,C   4)      0.65 -0.000002    0.04      0.69   
   148. D(C  12,N  11,C   9,C  10)     -0.22 -0.000001   -0.01     -0.23   
   149. D(C  12,N  11,C   9,C   4)   -179.93  0.000003   -0.01   -179.93   
   150. D(H  31,C  12,N  11,H  34)     -0.57  0.000009   -0.05     -0.63   
   151. D(H  31,C  12,N  11,C   9)   -180.00  0.000006   -0.00   -180.00   
   152. D(C  13,C  12,N  11,H  34)    179.56  0.000005   -0.04    179.52   
   153. D(C  13,C  12,N  11,C   9)      0.14  0.000002    0.01      0.14   
   154. D(H  32,C  13,C  12,H  31)     -0.00 -0.000005    0.01      0.01   
   155. D(H  32,C  13,C  12,N  11)    179.85 -0.000002   -0.00    179.85   
   156. D(C  14,C  13,C  12,H  31)   -179.79 -0.000005    0.01   -179.78   
   157. D(C  14,C  13,C  12,N  11)      0.07 -0.000001   -0.00      0.06   
   158. D(C  10,C  14,C  13,C  12)     -0.17 -0.000002    0.00     -0.17   
   159. D(H  33,C  14,C  10,C   9)   -179.57  0.000004   -0.01   -179.58   
   160. D(H  33,C  14,C  10,C   8)      0.37  0.000004   -0.01      0.36   
   161. D(C  13,C  14,C  10,C   9)      0.08  0.000003   -0.01      0.07   
   162. D(C  13,C  14,C  10,C   8)   -179.98  0.000004   -0.01   -179.99   
   163. D(H  33,C  14,C  13,H  32)     -0.31 -0.000001   -0.00     -0.31   
   164. D(H  33,C  14,C  13,C  12)    179.47 -0.000002    0.00    179.47   
   165. D(C  10,C  14,C  13,H  32)   -179.95 -0.000001    0.00   -179.95   
   166. D(N  17,C  15,O   5,C   3)    156.71 -0.000044    0.21    156.92   
   167. D(O  16,C  15,O   5,C   3)    -25.53  0.000048    0.16    -25.37   
   168. D(C  19,N  17,C  15,O  16)    178.34 -0.000048    0.01    178.35   
   169. D(C  19,N  17,C  15,O   5)     -4.12  0.000055   -0.05     -4.17   
   170. D(C  18,N  17,C  15,O  16)     -4.65 -0.000040   -0.00     -4.65   
   171. D(C  18,N  17,C  15,O   5)    172.88  0.000064   -0.05    172.83   
   172. D(H  25,C  18,N  17,C  15)    120.72  0.000009   -0.12    120.60   
   173. D(H  24,C  18,N  17,C  19)     57.24  0.000019   -0.13     57.11   
   174. D(H  24,C  18,N  17,C  15)   -120.05  0.000010   -0.13   -120.17   
   175. D(H  23,C  18,N  17,C  19)    177.59  0.000010   -0.13    177.45   
   176. D(H  23,C  18,N  17,C  15)      0.30  0.000002   -0.13      0.17   
   177. D(H  22,C  19,N  17,C  15)    107.25  0.000002   -0.22    107.03   
   178. D(H  21,C  19,N  17,C  18)     49.04 -0.000001   -0.21     48.83   
   179. D(H  21,C  19,N  17,C  15)   -133.87  0.000007   -0.22   -134.08   
   180. D(H  20,C  19,N  17,C  18)    168.77  0.000034   -0.23    168.54   
   181. D(H  20,C  19,N  17,C  15)    -14.13  0.000042   -0.24    -14.37   
    ----------------------------------------------------------------------------

Geometry step timings:
Preparation and reading OPT file:      0.002 s ( 4.686 %)
Internal coordinates            :      0.000 s ( 0.063 %)
B/P matrices and projection     :      0.002 s ( 5.026 %)
Hessian update/contruction      :      0.028 s (64.029 %)
Making the step                 :      0.002 s ( 3.464 %)
Converting the step to Cartesian:      0.000 s ( 0.369 %)
Storing new data                :      0.003 s ( 6.676 %)
Checking convergence            :      0.000 s ( 0.034 %)
Final printing                  :      0.007 s (15.646 %)
Total time                      :      0.044 s

Time for energy+gradient        :    805.798 s
Time for complete geometry iter :    806.007 s

         *************************************************************
         *                GEOMETRY OPTIMIZATION CYCLE   7            *
         *************************************************************
---------------------------------
CARTESIAN COORDINATES (ANGSTROEM)
---------------------------------
  C     -3.075466   -0.662481   -0.038566
  C     -2.659832   -1.737743   -0.812228
  C     -1.335706   -1.813952   -1.183163
  C     -2.171827    0.344134    0.353913
  C     -0.797449    0.303248    0.005264
  O     -2.605682    1.342347    1.157121
  C     -0.392553   -0.814609   -0.786746
  C      0.938504   -0.941149   -1.197070
  C      1.871577    0.009383   -0.832001
  C      0.185204    1.274309    0.367062
  C      1.520651    1.135139   -0.048472
  N     -0.125463    2.390198    1.129886
  C      0.812696    3.330078    1.481590
  C      2.113882    3.202490    1.084068
  C      2.498637    2.102283    0.307617
  C     -3.886103    1.916656    0.950750
  O     -4.406210    1.883845   -0.143837
  N     -4.331833    2.486363    2.067820
  C     -5.562759    3.270221    2.019986
  C     -3.652328    2.449075    3.361371
  H     -2.872526    1.697016    3.366975
  H     -4.387135    2.205881    4.128934
  H     -3.220551    3.427039    3.582877
  H     -5.959062    3.268342    1.010636
  H     -5.350731    4.294921    2.329901
  H     -6.294911    2.837987    2.703475
  H     -0.974948   -2.640846   -1.779751
  H     -4.099195   -0.596005    0.296645
  H     -3.364367   -2.503738   -1.101590
  H      1.228738   -1.789938   -1.800778
  H      2.901829   -0.096606   -1.146298
  H      0.444489    4.150989    2.076600
  H      2.827671    3.959665    1.374756
  H      3.516041    1.975391   -0.030182
  H     -1.072212    2.510847    1.445246

----------------------------
CARTESIAN COORDINATES (A.U.)
----------------------------
  NO LB      ZA    FRAG     MASS         X           Y           Z
   0 C     6.0000    0    12.011   -5.811789   -1.251908   -0.072879
   1 C     6.0000    0    12.011   -5.026354   -3.283859   -1.534889
   2 C     6.0000    0    12.011   -2.524118   -3.427872   -2.235855
   3 C     6.0000    0    12.011   -4.104158    0.650319    0.668800
   4 C     6.0000    0    12.011   -1.506960    0.573056    0.009947
   5 O     8.0000    0    15.999   -4.924025    2.536669    2.186642
   6 C     6.0000    0    12.011   -0.741818   -1.539388   -1.486734
   7 C     6.0000    0    12.011    1.773516   -1.778514   -2.262135
   8 C     6.0000    0    12.011    3.536769    0.017730   -1.572254
   9 C     6.0000    0    12.011    0.349985    2.408095    0.693647
  10 C     6.0000    0    12.011    2.873615    2.145102   -0.091599
  11 N     7.0000    0    14.007   -0.237091    4.516819    2.135175
  12 C     6.0000    0    12.011    1.535772    6.292936    2.799800
  13 C     6.0000    0    12.011    3.994659    6.051829    2.048592
  14 C     6.0000    0    12.011    4.721740    3.972739    0.581312
  15 C     6.0000    0    12.011   -7.343671    3.621955    1.796658
  16 O     8.0000    0    15.999   -8.326529    3.559951   -0.271813
  17 N     7.0000    0    14.007   -8.185978    4.698545    3.907613
  18 C     6.0000    0    12.011  -10.512092    6.179821    3.817220
  19 C     6.0000    0    12.011   -6.901900    4.628082    6.352070
  20 H     1.0000    0     1.008   -5.428287    3.206895    6.362661
  21 H     1.0000    0     1.008   -8.290485    4.168511    7.802554
  22 H     1.0000    0     1.008   -6.085959    6.476165    6.770656
  23 H     1.0000    0     1.008  -11.260996    6.176270    1.909826
  24 H     1.0000    0     1.008  -10.111416    8.116225    4.402876
  25 H     1.0000    0     1.008  -11.895658    5.363019    5.108826
  26 H     1.0000    0     1.008   -1.842384   -4.990476   -3.363243
  27 H     1.0000    0     1.008   -7.746357   -1.126286    0.560578
  28 H     1.0000    0     1.008   -6.357731   -4.731379   -2.081704
  29 H     1.0000    0     1.008    2.321978   -3.382492   -3.402978
  30 H     1.0000    0     1.008    5.483661   -0.182558   -2.166189
  31 H     1.0000    0     1.008    0.839962    7.844233    3.924206
  32 H     1.0000    0     1.008    5.343524    7.482682    2.597913
  33 H     1.0000    0     1.008    6.644354    3.732948   -0.057036
  34 H     1.0000    0     1.008   -2.026187    4.744813    2.731119

--------------------------------
INTERNAL COORDINATES (ANGSTROEM)
--------------------------------
 C      0   0   0     0.000000000000     0.00000000     0.00000000
 C      1   0   0     1.388342000858     0.00000000     0.00000000
 C      2   1   0     1.377211522263   118.73647764     0.00000000
 C      1   2   3     1.408502148868   121.11253936     0.63752176
 C      4   1   2     1.418500069074   122.17567365   358.83286437
 O      4   1   2     1.352701929767   119.14831930   182.92714853
 C      5   4   1     1.428574353441   115.68548306     0.90018414
 C      7   5   4     1.398603759862   120.21113856   179.27132790
 C      8   7   5     1.381090582471   120.20906617     0.41224640
 C      5   4   1     1.428098077075   125.78990953   180.38789992
 C     10   5   4     1.405509374569   120.76756580   180.63553035
 N     10   5   4     1.386946887213   122.16034857     0.32525333
 C     12  10   5     1.373759175174   122.56783713   180.06587200
 C     13  12  10     1.366524729911   120.79096705     0.14428153
 C     14  13  12     1.400488260139   119.75027360     0.06482717
 C      6   4   1     1.418414153940   120.12751636   319.54669070
 O     16   6   4     1.212315491487   120.50993826   334.63346227
 N     16   6   4     1.330821364051   110.70454916   156.91732656
 C     18  16   6     1.460103054418   118.99137943   172.82902749
 C     18  16   6     1.461639636930   125.18566295   355.82924151
 H     20  18  16     1.083381898224   110.91054632   345.62649077
 H     20  18  16     1.090063386679   108.38966391   225.91942369
 H     20  18  16     1.091746066886   109.91151091   107.03127114
 H     19  18  16     1.084364229870   109.73500774     0.17397767
 H     19  18  16     1.091336474029   109.32823753   239.82922900
 H     19  18  16     1.090884181358   109.42492670   120.59861837
 H      3   2   1     1.081581358572   120.76771199   179.56931502
 H      1   2   3     1.079262309439   120.31503238   182.23220806
 H      2   1   3     1.080207093524   120.21360923   179.10960309
 H      8   7   5     1.081268075017   119.35921811   180.33530966
 H      9   8   7     1.082327694553   119.93001181   179.57723246
 H     13  12  10     1.078660220819   115.39081645   179.99922027
 H     14  13  12     1.080420000186   119.03672424   179.85198351
 H     15  14  13     1.079499972796   121.65191826   179.47341464
 H     12  10   5     1.005157460223   118.69249829     0.69239002

---------------------------
INTERNAL COORDINATES (A.U.)
---------------------------
 C      0   0   0     0.000000000000     0.00000000     0.00000000
 C      1   0   0     2.623586161841     0.00000000     0.00000000
 C      2   1   0     2.602552605559   118.73647764     0.00000000
 C      1   2   3     2.661683320401   121.11253936     0.63752176
 C      4   1   2     2.680576651499   122.17567365   358.83286437
 O      4   1   2     2.556236188086   119.14831930   182.92714853
 C      5   4   1     2.699614289946   115.68548306     0.90018414
 C      7   5   4     2.642978076011   120.21113856   179.27132790
 C      8   7   5     2.609882967007   120.20906617     0.41224640
 C      5   4   1     2.698714258051   125.78990953   180.38789992
 C     10   5   4     2.656027796594   120.76756580   180.63553035
 N     10   5   4     2.620949779127   122.16034857     0.32525333
 C     12  10   5     2.596028615041   122.56783713   180.06587200
 C     13  12  10     2.582357494763   120.79096705     0.14428153
 C     14  13  12     2.646539265435   119.75027360     0.06482717
 C      6   4   1     2.680414295425   120.12751636   319.54669070
 O     16   6   4     2.290944266821   120.50993826   334.63346227
 N     16   6   4     2.514887911228   110.70454916   156.91732656
 C     18  16   6     2.759194900152   118.99137943   172.82902749
 C     18  16   6     2.762098620281   125.18566295   355.82924151
 H     20  18  16     2.047295086090   110.91054632   345.62649077
 H     20  18  16     2.059921269438   108.38966391   225.91942369
 H     20  18  16     2.063101074200   109.91151091   107.03127114
 H     19  18  16     2.049151423876   109.73500774     0.17397767
 H     19  18  16     2.062327055874   109.32823753   239.82922900
 H     19  18  16     2.061472346594   109.42492670   120.59861837
 H      3   2   1     2.043892559256   120.76771199   179.56931502
 H      1   2   3     2.039510191503   120.31503238   182.23220806
 H      2   1   3     2.041295574679   120.21360923   179.10960309
 H      8   7   5     2.043300539134   119.35921811   180.33530966
 H      9   8   7     2.045302929864   119.93001181   179.57723246
 H     13  12  10     2.038372408903   115.39081645   179.99922027
 H     14  13  12     2.041697909962   119.03672424   179.85198351
 H     15  14  13     2.039959310159   121.65191826   179.47341464
 H     12  10   5     1.899472321290   118.69249829     0.69239002

------------------------------------------------------------------------------
                   ___                                                        
                  /   \      - P O W E R E D   B Y -                         
                 /     \                                                     
                 |  |  |   _    _      __       _____    __    __             
                 |  |  |  | |  | |    /  \     |  _  \  |  |  /  |          
                  \  \/   | |  | |   /    \    | | | |  |  | /  /          
                 / \  \   | |__| |  /  /\  \   | |_| |  |  |/  /          
                |  |  |   |  __  | /  /__\  \  |    /   |      \           
                |  |  |   | |  | | |   __   |  |    \   |  |\   \          
                \     /   | |  | | |  |  |  |  | |\  \  |  | \   \       
                 \___/    |_|  |_| |__|  |__|  |_| \__\ |__|  \__/        
                                                                              
                      - O R C A' S   B I G   F R I E N D -                    
                                      &                                       
                       - I N T E G R A L  F E E D E R -                       
                                                                              
 v1 FN, 2020, v2 2021, v3 2022-2024                                           
------------------------------------------------------------------------------


----------------------
SHARK INTEGRAL PACKAGE
----------------------

Number of atoms                             ...     35
Number of basis functions                   ...    570
Number of shells                            ...    260
Maximum angular momentum                    ...      2
Integral batch strategy                     ... SHARK/LIBINT Hybrid
RI-J (if used) integral strategy            ... SPLIT-RIJ (Revised 2003 algorithm where possible)
Printlevel                                  ...      1
Contraction scheme used                     ... SEGMENTED contraction
Prescreening option                         ... SCHWARTZ
   Thresh                                   ... 2.500e-11
   Tcut                                     ... 2.500e-12
   Tpresel                                  ... 2.500e-12 
Coulomb Range Separation                    ... NOT USED
Exchange Range Separation                   ... NOT USED
Multipole approximations                    ... NOT USED
Finite Nucleus Model                        ... NOT USED
CABS basis                                  ... NOT available
Auxiliary Coulomb fitting basis             ... AVAILABLE
   # of basis functions in Aux-J            ...   1145
   # of shells in Aux-J                     ...    375
   Maximum angular momentum in Aux-J        ...      4
Auxiliary J/K fitting basis                 ... NOT available
Auxiliary Correlation fitting basis         ... AVAILABLE
   # of basis functions in Aux-C            ...   1745
   # of shells in Aux-C                     ...    545
   Maximum angular momentum in Aux-C        ...      4
Auxiliary 'external' fitting basis          ... NOT available

Checking pre-screening integrals            ... done (  0.0 sec) Dimension = 260
Check shell pair data                       ... done (  0.0 sec)
Shell pair information
Shell pair cut-off parameter TPreSel        ...   2.5e-12
Total number of shell pairs                 ...     33930
Shell pairs after pre-screening             ...     25289
Total number of primitive shell pairs       ...    111170
Primitive shell pairs kept                  ...     55028
          la=0 lb=0:   7472 shell pairs
          la=1 lb=0:   8326 shell pairs
          la=1 lb=1:   2327 shell pairs
          la=2 lb=0:   4204 shell pairs
          la=2 lb=1:   2345 shell pairs
          la=2 lb=2:    615 shell pairs

Calculating one electron integrals          ... done (  0.1 sec)
Calculating RI/J V-Matrix + Cholesky decomp.... done (  0.2 sec)
Calculating RI/C V-Matrix + Cholesky decomp.... done (  0.5 sec)
Calculating Nuclear repulsion               ... done (  0.0 sec) ENN=   1507.203644622309 Eh

Diagonalization of the overlap matrix:
Smallest eigenvalue                        ... 3.488e-06
Time for diagonalization                   ...    0.029 sec
Threshold for overlap eigenvalues          ... 1.000e-07
Number of eigenvalues below threshold      ... 0
Time for construction of square roots      ...    0.040 sec
Total time needed                          ...    0.079 sec

-------------------
DFT GRID GENERATION
-------------------

General Integration Accuracy     IntAcc      ... 4.388
Radial Grid Type                 RadialGrid  ... OptM3 with GC (2021)
Angular Grid (max. ang.)         AngularGrid ... 4 (Lebedev-302)
Angular grid pruning method      GridPruning ... 4 (adaptive)
Weight generation scheme         WeightScheme... mBecke (2022)
Basis function cutoff            BFCut       ... 1.0000e-11
Integration weight cutoff        WCut        ... 1.0000e-14
Partially contracted basis set               ... off
Rotationally invariant grid construction     ... off
Angular grids for H and He will be reduced by one unit

Total number of grid points                  ...   167566
Total number of batches                      ...     2637
Average number of points per batch           ...       63
Average number of grid points per atom       ...     4788

--------------------
COSX GRID GENERATION
--------------------

GRIDX 1
-------
General Integration Accuracy     IntAcc      ... 3.816
Radial Grid Type                 RadialGrid  ... OptM3 with GC (2021)
Angular Grid (max. ang.)         AngularGrid ... 1 (Lebedev-50)
Angular grid pruning method      GridPruning ... 4 (adaptive)
Weight generation scheme         WeightScheme... mBecke (2022)
Basis function cutoff            BFCut       ... 1.0000e-11
Integration weight cutoff        WCut        ... 1.0000e-14
Partially contracted basis set               ... on
Rotationally invariant grid construction     ... off
Angular grids for H and He will be reduced by one unit

Total number of grid points                  ...    21315
Total number of batches                      ...      184
Average number of points per batch           ...      115
Average number of grid points per atom       ...      609
UseSFitting                                  ... on

GRIDX 2
-------
General Integration Accuracy     IntAcc      ... 4.020
Radial Grid Type                 RadialGrid  ... OptM3 with GC (2021)
Angular Grid (max. ang.)         AngularGrid ... 2 (Lebedev-110)
Angular grid pruning method      GridPruning ... 4 (adaptive)
Weight generation scheme         WeightScheme... mBecke (2022)
Basis function cutoff            BFCut       ... 1.0000e-11
Integration weight cutoff        WCut        ... 1.0000e-14
Partially contracted basis set               ... on
Rotationally invariant grid construction     ... off
Angular grids for H and He will be reduced by one unit

Total number of grid points                  ...    46389
Total number of batches                      ...      377
Average number of points per batch           ...      123
Average number of grid points per atom       ...     1325
UseSFitting                                  ... on

GRIDX 3
-------
General Integration Accuracy     IntAcc      ... 4.338
Radial Grid Type                 RadialGrid  ... OptM3 with GC (2021)
Angular Grid (max. ang.)         AngularGrid ... 3 (Lebedev-194)
Angular grid pruning method      GridPruning ... 4 (adaptive)
Weight generation scheme         WeightScheme... mBecke (2022)
Basis function cutoff            BFCut       ... 1.0000e-11
Integration weight cutoff        WCut        ... 1.0000e-14
Partially contracted basis set               ... on
Rotationally invariant grid construction     ... off
Angular grids for H and He will be reduced by one unit

Total number of grid points                  ...   101604
Total number of batches                      ...      811
Average number of points per batch           ...      125
Average number of grid points per atom       ...     2903
UseSFitting                                  ... on
Initializing property integral containers    ... done (  0.0 sec)

SHARK setup successfully completed in   6.7 seconds

Maximum memory used throughout the entire STARTUP-calculation: 107.5 MB
Occupation numbers will be reassigned to an Aufbau configuration
             **** ENERGY FILE WAS UPDATED (HBQ-H.en.tmp) ****
Finished Guess after   0.8 sec
Maximum memory used throughout the entire GUESS-calculation: 68.9 MB
--------------------
CPCM SOLVATION MODEL
--------------------
CPCM parameters:
  Epsilon                                         ...      80.1510
  Refrac                                          ...       1.3328
  Rsolv                                           ...       1.3000
  Surface type                                    ... GAUSSIAN VDW
  Discretization scheme                           ... Constant charge density
    Threshold for H atoms                         ...       5.0000 (charges/Ang^2)
    Threshold for non-H atoms                     ...       5.0000 (charges/Ang^2)
  Epsilon function type                           ...         CPCM
Solvent:                                          ... WATER
Radii:
  Scheme                                          ... Element-dependent radii
  Radius for C  used is    3.8550 Bohr (=   2.0400 Ang.)
  Radius for O  used is    3.4469 Bohr (=   1.8240 Ang.)
  Radius for N  used is    3.5149 Bohr (=   1.8600 Ang.)
  Radius for H  used is    2.4944 Bohr (=   1.3200 Ang.)
Calculating surface                               ...        done! (  0.0s)
Cavity surface points                             ...         3052
Cavity Volume                                     ...    2130.3618
Cavity Surface-area                               ...    1085.5417
Calculating surface distance matrix               ...        done! (  0.0s)
Performing Cholesky decomposition & store         ...        done! (  0.9s)
Overall time for CPCM initialization              ...                 0.9s

----------------------------------------D-I-I-S--------------------------------------------
Iteration    Energy (Eh)           Delta-E    RMSDP     MaxDP     DIISErr   Damp  Time(sec)
-------------------------------------------------------------------------------------------
               ***  Starting incremental Fock matrix formation  ***
                              *** Initializing SOSCF ***
---------------------------------------S-O-S-C-F--------------------------------------
Iteration    Energy (Eh)           Delta-E    RMSDP     MaxDP     MaxGrad    Time(sec)
--------------------------------------------------------------------------------------
    1    -878.3703552102344929     0.00e+00  5.34e-05  2.14e-03  6.51e-05    37.7
               *** Restarting incremental Fock matrix formation ***
    2    -878.3703822991885772    -2.71e-05  1.41e-05  5.86e-04  8.52e-05    37.6
    3    -878.3703850418594357    -2.74e-06  7.96e-06  7.68e-04  1.65e-05    22.7
    4    -878.3703850129056718     2.90e-08  5.59e-06  6.07e-04  4.26e-05    19.2
    5    -878.3703851323909930    -1.19e-07  3.28e-06  3.60e-04  7.51e-06    17.5
    6    -878.3703851124162156     2.00e-08  4.94e-06  4.81e-04  8.32e-06    15.8
    7    -878.3703851158645648    -3.45e-09  5.39e-06  5.42e-04  1.12e-06    14.4
                 **** Energy Check signals convergence ****

               *****************************************************
               *                     SUCCESS                       *
               *           SCF CONVERGED AFTER   7 CYCLES          *
               *****************************************************

Recomputing exchange energy using gridx3       ... done (   58.970 sec)
Old exchange energy                            :    -23.567378613 Eh
New exchange energy                            :    -23.567357358 Eh
Exchange energy change after final integration :      0.000021256 Eh
Total energy after final integration           :   -878.370363860 Eh
             **** ENERGY FILE WAS UPDATED (HBQ-H.en.tmp) ****

----------------
TOTAL SCF ENERGY
----------------

Total Energy       :       -878.37036386003228 Eh          -23901.67274 eV

Components:
Nuclear Repulsion  :       1507.20364462230896 Eh           41013.09624 eV
Electronic Energy  :      -2385.48696457774668 Eh          -64912.40039 eV
One Electron Energy:      -4166.06936793961358 Eh         -113364.51084 eV
Two Electron Energy:       1780.58240336186691 Eh           48452.11045 eV
CPCM Dielectric    :         -0.08706516042685 Eh              -2.36916 eV

Virial components:
Potential Energy   :      -1752.80699915430591 Eh          -47696.30328 eV
Kinetic Energy     :        874.43663529427363 Eh           23794.63054 eV
Virial Ratio       :          2.00449858618336

DFT components:
N(Alpha)           :       69.999981774247 electrons
N(Beta)            :       69.999981774247 electrons
N(Total)           :      139.999963548494 electrons
E(X)               :      -93.697088395376 Eh       
E(C)               :       -5.639020144322 Eh       
E(XC)              :      -99.336108539698 Eh       

CPCM Solvation Model Properties:
Surface-charge          :         -1.02879136785962
Corrected charge        :         -1.00000000000000
Outlying charge corr.   :          0.00004607423750 Eh               0.00125 eV
Free-energy (cav+disp)  :  This term is not implemented in the current solvation scheme

---------------
SCF CONVERGENCE
---------------

  Last Energy change         ...    3.4483e-09  Tolerance :   1.0000e-08
  Last MAX-Density change    ...    5.4204e-04  Tolerance :   1.0000e-07
  Last RMS-Density change    ...    5.3937e-06  Tolerance :   5.0000e-09
  Last DIIS Error            ...    1.9008e-03  Tolerance :   5.0000e-07
  Last Orbital Gradient      ...    1.1158e-06  Tolerance :   1.0000e-05
  Last Orbital Rotation      ...    3.5612e-06  Tolerance :   1.0000e-05


Total SCF time: 0 days 0 hours 3 min 46 sec 
Finished LeanSCF after 226.2 sec

Maximum memory used throughout the entire LEANSCF-calculation: 131.8 MB

------------------------------------------------------------------------------
                         ORCA PROPERTY INTEGRAL CALCULATIONS
------------------------------------------------------------------------------

GBWName                                   ... HBQ-H.gbw
Number of atoms                           ...     35
Number of basis functions                 ...    570
Max core memory                           ...   1024 MB

Dipole integrals                          ... YES
Quadrupole integrals                      ...  NO
Linear momentum integrals                 ... YES
Angular momentum integrals                ... YES
Higher moments length integrals           ...  NO
Higher moments velocity integrals         ...  NO
Kinetic energy integrals                  ...  NO
GIAO right hand sides                     ...  NO
GIAO dipole derivative integrals          ...  NO
SOC integrals                             ...  NO
EPR diamagnetic integrals (GIAO)          ...  NO
EPR gauge integrals                       ...  NO
Field gradient integrals                  ...  NO (   0 nuclei)
Spin-dipole/Fermi contact integrals       ...  NO (   0 nuclei)
Contact density integrals                 ...  NO (   0 nuclei)
Nucleus-orbit integrals                   ...  NO (   0 nuclei)
Geometric perturbations                   ...  NO (  35 nuclei)

Choice of electric origin   ... Center of mass
Position of electric origin ... ( -2.5787,  2.1446,  0.9759) 
Choice of magnetic origin   ... GIAO
Position of magnetic origin ... (  0.0000,  0.0000,  0.0000) 

Calculating integrals                     ... Electric Dipole (Length)     done (  0.2 sec)
Calculating integrals                     ... Linear Momentum              done (  0.3 sec)
Calculating integrals                     ... Angular Momentum  (ElOri)    done (  0.4 sec)

Property integrals calculated in   0.9 sec

Maximum memory used throughout the entire PROPINT-calculation: 71.3 MB
------------------------------------------------------------------------------
                        ORCA TD-DFT/TDA CALCULATION
------------------------------------------------------------------------------

Input orbitals are from        ... HBQ-H.gbw
CI-vector output               ... HBQ-H.cis
Solver                         ... FN-2001
Tamm-Dancoff approximation     ... operative
CIS-Integral strategy          ... AO-integrals
Integral handling              ... AO integral Direct
Max. core memory used          ... 512 MB
Reference state                ... RHF
Generation of triplets         ... off
Follow IRoot                   ... off
Number of operators            ... 1
Orbital ranges used for CIS calculation:
 Operator 0:  Orbitals  20... 69  to  70...569
XAS localization array:
 Operator 0:  Orbitals  -1... -1

-------------------
XC-INTEGRATION GRID
-------------------

General Integration Accuracy     IntAcc      ... 3.467
Radial Grid Type                 RadialGrid  ... OptM3 with GC (2021)
Angular Grid (max. ang.)         AngularGrid ... 1 (Lebedev-50)
Angular grid pruning method      GridPruning ... 4 (adaptive)
Weight generation scheme         WeightScheme... mBecke (2022)
Basis function cutoff            BFCut       ... 1.0000e-11
Integration weight cutoff        WCut        ... 1.0000e-14
Partially contracted basis set               ... off
Rotationally invariant grid construction     ... off
Angular grids for H and He will be reduced by one unit

Total number of grid points                  ...    24528
Total number of batches                      ...      401
Average number of points per batch           ...       61
Average number of grid points per atom       ...      701

---------------------
COSX-INTEGRATION GRID
---------------------

General Integration Accuracy     IntAcc      ... 3.067
Radial Grid Type                 RadialGrid  ... OptM3 with GC (2021)
Angular Grid (max. ang.)         AngularGrid ... 1 (Lebedev-50)
Angular grid pruning method      GridPruning ... 4 (adaptive)
Weight generation scheme         WeightScheme... mBecke (2022)
Basis function cutoff            BFCut       ... 1.0000e-11
Integration weight cutoff        WCut        ... 1.0000e-14
Partially contracted basis set               ... on
Rotationally invariant grid construction     ... off
Angular grids for H and He will be reduced by one unit

Total number of grid points                  ...    11332
Total number of batches                      ...      112
Average number of points per batch           ...      101
Average number of grid points per atom       ...      324

---------------
TD-DFT XC SETUP
---------------

DFT calculation                         ... on
Name of the grid file                   ... HBQ-H.grid_cis.tmp
RI-approximation                        ... on
Aux-basis dimension                     ... 1745
Exchange functional (TD-DFT)            ... B88
   X-Alpha parameter    XAlpha (TD-DFT) ...  0.666667
   Becke's b parameter  XBeta (TD-DFT)  ...  0.004200
Correlation functional (TD-DFT)         ... LYP
 LDA part of GGA corr.  LDAOpt (TD-DFT) ... VWN-5
Hybrid DFT                              ... on
   Exchange mixing (TD-DFT)             ...  0.200
   GGA exch. scaling (TD-DFT)           ...  0.720
   GGA corr. scaling (TD-DFT)           ...  0.810

Building densities             ... done
Calculating rho(r) on the grid ... done
Building xc-kernel on the grid ... done
                    *** TD-DFT CALCULATION INITIALIZED ***

-----------------------------
    LR-CPCM (equilibrium)
-----------------------------

Setting up LR-CPCM             ... done

------------------------
DAVIDSON-DIAGONALIZATION
------------------------

Dimension of the eigenvalue problem            ...  25000
Number of roots to be determined               ...      1
Maximum size of the expansion space            ...     10
Maximum number of iterations                   ...    100
Convergence tolerance for the residual         ...    2.500e-07
Convergence tolerance for the energies         ...    2.500e-07
Orthogonality tolerance                        ...    1.000e-14
Level Shift                                    ...    0.000e+00
Constructing the preconditioner                ... o.k.
Building the initial guess                     ... o.k.
Number of trial vectors determined             ...     10


                       ****Iteration    0****
   Time for iteration     :  TOTAL=22.2 TRAFO=0.5 RIJ=3.8 COSX=8.1 XC=1.5
   Size of expansion space: 3
   Lowest Energy          :     0.117868823116
   Maximum Energy change  :     0.117868823116 (vector 0)
   Maximum residual norm  :     0.010501679102

                       ****Iteration    1****
   Time for iteration     :  TOTAL=16.5 TRAFO=0.0 RIJ=2.6 COSX=6.9 XC=0.5
   Size of expansion space: 4
   Lowest Energy          :     0.107225332432
   Maximum Energy change  :     0.010643490685 (vector 0)
   Maximum residual norm  :     0.000215629164

                       ****Iteration    2****
   Time for iteration     :  TOTAL=18.2 TRAFO=0.0 RIJ=4.1 COSX=7.1 XC=0.5
   Size of expansion space: 5
   Lowest Energy          :     0.106967370972
   Maximum Energy change  :     0.000257961460 (vector 0)
   Maximum residual norm  :     0.000034625870

                       ****Iteration    3****
   Time for iteration     :  TOTAL=16.5 TRAFO=0.0 RIJ=2.5 COSX=6.9 XC=0.5
   Size of expansion space: 6
   Lowest Energy          :     0.106908734776
   Maximum Energy change  :     0.000058636196 (vector 0)
   Maximum residual norm  :     0.000004829089

                       ****Iteration    4****
   Time for iteration     :  TOTAL=17.6 TRAFO=0.3 RIJ=2.6 COSX=7.6 XC=0.5
   Size of expansion space: 7
   Lowest Energy          :     0.106903487698
   Maximum Energy change  :     0.000005247078 (vector 0)
   Maximum residual norm  :     0.000000696680

                       ****Iteration    5****
   Time for iteration     :  TOTAL=17.2 TRAFO=0.0 RIJ=2.9 COSX=7.2 XC=0.5
   Size of expansion space: 8
   Lowest Energy          :     0.106902700469
   Maximum Energy change  :     0.000000787229 (vector 0)
   Maximum residual norm  :     0.000000052503

      *** CONVERGENCE OF RESIDUAL NORM REACHED ***

Storing the converged CI vectors               ... HBQ-H.cis1

                 *** DAVIDSON DONE ***

Total time for solving the CIS problem:   109.420sec

------------------------------------
TD-DFT/TDA EXCITED STATES (SINGLETS)
------------------------------------

the weight of the individual excitations are printed if larger than 1.0e-02

STATE  1:  E=   0.106903 au      2.909 eV    23462.4 cm**-1 <S**2> =   0.000000 Mult 1
    67a ->  71a  :     0.014075 (c=  0.11863921)
    69a ->  70a  :     0.966122 (c= -0.98291516)


-----------------------------
TD-DFT/TDA-EXCITATION SPECTRA
-----------------------------

Center of mass = ( -2.5787,  2.1446,  0.9759)
Generating CIS transition densities           ... done

----------------------------------------------------------------------------------------------------
                     ABSORPTION SPECTRUM VIA TRANSITION ELECTRIC DIPOLE MOMENTS    
----------------------------------------------------------------------------------------------------
     Transition      Energy     Energy  Wavelength fosc(D2)      D2        DX        DY        DZ   
                      (eV)      (cm-1)    (nm)                 (au**2)    (au)      (au)      (au)  
----------------------------------------------------------------------------------------------------
  0-1A  ->  1-1A    2.908970   23462.4   426.2   0.252513749   3.54313  -1.65188  -0.88816  -0.15999

----------------------------------------------------------------------------------------------------
                     ABSORPTION SPECTRUM VIA TRANSITION VELOCITY DIPOLE MOMENTS    
----------------------------------------------------------------------------------------------------
     Transition      Energy     Energy  Wavelength fosc(P2)      P2        PX        PY        PZ   
                      (eV)      (cm-1)    (nm)                 (au**2)    (au)      (au)      (au)  
----------------------------------------------------------------------------------------------------
  0-1A  ->  1-1A    2.908970   23462.4   426.2   0.059507575   0.00954   0.08674   0.04286   0.01346

------------------------------------------------------------------------------------------
                     CD SPECTRUM VIA TRANSITION ELECTRIC DIPOLE MOMENTS    
------------------------------------------------------------------------------------------
     Transition      Energy     Energy  Wavelength    R        MX        MY        MZ   
                      (eV)      (cm-1)    (nm)   (1e40*cgs)   (au)      (au)      (au)  
------------------------------------------------------------------------------------------
  0-1A  ->  1-1A    2.908970   23462.4   426.2    1.07372   0.07125  -0.18819   0.32328

------------------------------------------------------------------------------------------
                     CD SPECTRUM VIA TRANSITION VELOCITY DIPOLE MOMENTS    
------------------------------------------------------------------------------------------
     Transition      Energy     Energy  Wavelength    R        MX        MY        MZ   
                      (eV)      (cm-1)    (nm)   (1e40*cgs)   (au)      (au)      (au)  
------------------------------------------------------------------------------------------
  0-1A  ->  1-1A    2.908970   23462.4   426.2   10.87431   0.07125  -0.18819   0.32328

Total run time:      111.619 sec

           *** ORCA-CIS/TD-DFT FINISHED WITHOUT ERROR ***
-----------------------
CIS/TD-DFT TOTAL ENERGY
-----------------------

    E(SCF)  =   -878.370363860 Eh
    DE(CIS) =      0.106902700 Eh (Root  1)
    ----------------------------- ---------
    E(tot)  =   -878.263461160 Eh


------------------------
TD-DFT GRADIENT XC SETUP
------------------------

Building densities                     ... done
Calculating rho(r) on the grid         ... done
Building xc-kernel on the grid         ... done
Building xc 3rd derivative on the grid ... done
                *** TD-DFT GRADIENT CALCULATION INITIALIZED ***

--------------------------
TD-DFT/TDA RELAXED DENSITY
--------------------------

Reference wavefunction             ... RHF
State of interest                  ... 1
Basis dimension                    ... 570
DFT-XC contribution needed         ... YES
RI-approximation                   ... YES
Do Coulomb                         ... YES
Do Exchange                        ... YES
Need Hartree-Fock Exchange         ... YES
facj, facx                         ...  2.000, -0.200
Conventional                       ... NO
Range separation                   ... NO
Triplet state                      ... NO
Spin Flip                          ... NO
CIS-vectors being read from        ... HBQ-H.cis
 => Number of Vectors found: 1
 => Orbital Window: 20...69 -> 70...569

Reading the CIS file                     ... done
Norm of the CI vector                    ... 1.000000000
Reading the CPCM file                    ... done
Making the CIS (pseudo)densities         ... done
Making operators G(D) and Q(T)           ... (SHARK-ok)done
Transforming the Fock operators          ... done
Making the frozen-core relaxed density   ... done
Constructing the G(H) operator           ... (SHARK-ok)done
Transforming the G(H) operator           ... done
Calculating the CIS Lagrangian           ... done
Solving the Z-vector equations           ... 

Using XC Grid                  ... (HBQ-H.grid_cpscf.tmp) 
Recalculating density on grid  ... (HBQ-H.grho_cpscf0.tmp) done
Calculating the xc-kernel      ... (HBQ-H.fxc_cpscf0.tmp) done

-------------------
SHARK CP-SCF DRIVER
-------------------

Dimension of the orbital basis          ...    570
Dimension of the CPSCF-problem          ...  35000
Number of operators                     ...      1
Max. number of iterations               ...    128
Convergence Tolerance                   ... 1.0e-04
Number of perturbations                 ...      1
Perturbation type                       ... REAL

----------------------------
POPLE LINEAR EQUATION SOLVER
----------------------------

  ITERATION   0:   ||err||_max =   1.6757e+00 (  16.3 sec)
  ITERATION   1:   ||err||_max =   8.9079e-02 (  16.6 sec)
  ITERATION   2:   ||err||_max =   1.8862e-02 (  17.7 sec)
  ITERATION   3:   ||err||_max =   6.3154e-03 (  16.6 sec)
  ITERATION   4:   ||err||_max =   2.3553e-03 (  16.8 sec)
  ITERATION   5:   ||err||_max =   1.0278e-03 (  16.7 sec)
  ITERATION   6:   ||err||_max =   3.0670e-04 (  16.7 sec)
  ITERATION   7:   ||err||_max =   1.3188e-04 (  16.7 sec)
  ITERATION   8:   ||err||_max =   3.4350e-05 (  17.0 sec)

Finalizing the relaxed density           ... done
Storing the relaxed density              ... done
Constructing the G(Z) operator           ... (SHARK-ok)done
Adding the CPCM contribution             ... done
Adding the XC terms                      ... done
Transforming the G(Z) operator           ... done
Making the W-matrix                      ... done
Finalizing the W-matrix                  ... done
Transforming the W-matrix                ... done
Nuc. rep. gradient        (SHARK) ... done (  0.0 sec)
HCore & Overlap gradient  (SHARK) ... done (  2.1 sec)
Split-RIJ-J gradient      (SHARK) ... done ( 11.7 sec)
COSX-gradient                     ... done (114.1 sec)
CPCM gradient                     ... done (  9.6 sec)
Dispersion correction             ... done (  0.0 sec)

-------------------
DISPERSION GRADIENT
-------------------

   1   C   :   -0.000565092   -0.000589021   -0.000112127
   2   C   :   -0.000486263   -0.000674300   -0.000244644
   3   C   :   -0.000232152   -0.000731091   -0.000385004
   4   C   :   -0.000444339   -0.000288657   -0.000046787
   5   C   :   -0.000005456   -0.000221607   -0.000067974
   6   O   :   -0.000240593    0.000049754    0.000103652
   7   C   :    0.000139733   -0.000567754   -0.000370783
   8   C   :    0.000578064   -0.000523802   -0.000464856
   9   C   :    0.000703210   -0.000373715   -0.000401518
  10   C   :    0.000264064    0.000257950    0.000111591
  11   C   :    0.000659250    0.000047364   -0.000129686
  12   N   :    0.000202687    0.000586941    0.000297148
  13   C   :    0.000203148    0.000702172    0.000369563
  14   C   :    0.000450792    0.000563805    0.000236564
  15   C   :    0.000743542    0.000359660    0.000039696
  16   C   :   -0.000586617    0.000235763   -0.000212930
  17   O   :   -0.000444380    0.000236331   -0.000492619
  18   N   :   -0.000384063    0.000287371    0.000254802
  19   C   :   -0.000469416    0.000300445    0.000034697
  20   C   :   -0.000081512    0.000114309    0.000688101
  21   H   :    0.000002566   -0.000030039    0.000445136
  22   H   :   -0.000009770   -0.000037369    0.000330853
  23   H   :    0.000066401    0.000162732    0.000336914
  24   H   :   -0.000238120    0.000134110   -0.000088621
  25   H   :   -0.000194063    0.000266341    0.000025696
  26   H   :   -0.000307243    0.000075982    0.000082522
  27   H   :   -0.000000635   -0.000334139   -0.000206086
  28   H   :   -0.000324489   -0.000235266   -0.000003242
  29   H   :   -0.000216061   -0.000257252   -0.000098743
  30   H   :    0.000214693   -0.000257773   -0.000213720
  31   H   :    0.000335128   -0.000137918   -0.000166402
  32   H   :   -0.000014191    0.000304560    0.000181545
  33   H   :    0.000210354    0.000232459    0.000091829
  34   H   :    0.000375801    0.000070179   -0.000050572
  35   H   :    0.000095022    0.000271476    0.000126004

Difference to translation invariance:
           :    0.0000000000   -0.0000000000    0.0000000000

Difference to rotation invariance:
           :   -0.0000000000   -0.0000000000    0.0000000000

Norm of the Dispersion gradient    ...    0.0034220528
RMS gradient                       ...    0.0003339582
MAX gradient                       ...    0.0007435418

                 ---------------------------
                 EXCITED STATE GRADIENT DONE
                 ---------------------------

------------------
CARTESIAN GRADIENT
------------------

   1   C   :   -0.000062216    0.000019783    0.000027706
   2   C   :    0.000040874    0.000008736    0.000026525
   3   C   :   -0.000004225   -0.000037092    0.000012907
   4   C   :   -0.000060956   -0.000024859    0.000072507
   5   C   :    0.000104710   -0.000030188   -0.000042568
   6   O   :   -0.000166915    0.000013443   -0.000044559
   7   C   :    0.000011035   -0.000000971    0.000008765
   8   C   :    0.000079248   -0.000028208   -0.000031756
   9   C   :   -0.000018951   -0.000000890    0.000002659
  10   C   :   -0.000177206    0.000038968    0.000063926
  11   C   :    0.000041455   -0.000093197   -0.000083569
  12   N   :    0.000086275    0.000166396    0.000067982
  13   C   :   -0.000011193   -0.000002292   -0.000032717
  14   C   :    0.000016649    0.000005519   -0.000030946
  15   C   :    0.000041705    0.000058805    0.000002533
  16   C   :    0.000241068   -0.000086814    0.000036221
  17   O   :   -0.000073759   -0.000012754   -0.000007351
  18   N   :   -0.000011238    0.000031142   -0.000021406
  19   C   :   -0.000029354    0.000022679    0.000012551
  20   C   :   -0.000013505   -0.000021328    0.000080720
  21   H   :    0.000036598    0.000018892   -0.000002120
  22   H   :    0.000011619   -0.000005012    0.000005686
  23   H   :   -0.000004075    0.000018065   -0.000025532
  24   H   :   -0.000004585   -0.000015721    0.000014742
  25   H   :   -0.000008549    0.000005577   -0.000004230
  26   H   :    0.000006603    0.000008252    0.000021507
  27   H   :   -0.000028479   -0.000020257    0.000023014
  28   H   :   -0.000020537   -0.000006177    0.000021337
  29   H   :    0.000002177   -0.000016615    0.000020121
  30   H   :   -0.000049967   -0.000023281    0.000011244
  31   H   :   -0.000000576    0.000031671    0.000010242
  32   H   :    0.000000987    0.000006869   -0.000015386
  33   H   :   -0.000013602    0.000014511   -0.000027761
  34   H   :   -0.000015471   -0.000000713   -0.000028597
  35   H   :   -0.000031937   -0.000086883   -0.000066138

Difference to translation invariance:
           :   -0.0000862921   -0.0000439416    0.0000782607

Difference to rotation invariance:
           :   -0.0015331836    0.0023317626    0.0007239104

Norm of the Cartesian gradient     ...    0.0005318096
RMS gradient                       ...    0.0000518993
MAX gradient                       ...    0.0002410677

------------------------------------------------------------------------------
                  RELAXED CIS/TDA DENSITY POPULATION ANALYSIS
                                   IROOT 1
------------------------------------------------------------------------------
------------------------------------------------------------------------------
                           ORCA POPULATION ANALYSIS
------------------------------------------------------------------------------
Input electron density              ... HBQ-H.cispre.singlet.iroot1
BaseName (.gbw .S,...)              ... HBQ-H

-------
TIMINGS
-------

Total TD-DFT gradient time  ....      478.664 sec

Fock matrix formation       ....     125.290 sec  ( 26.2%)
  Coulomb formation         ....     114.061 sec  ( 91.0% of F)
  XC integration            ....      11.229 sec  (  9.0% of F)
Z-vector equation           ....     151.707 sec  ( 31.7%)
Densities                   ....       0.000 sec  (  0.0%)
One electron gradient       ....       2.058 sec  (  0.4%)
RI-J Coulomb gradient       ....      11.694 sec  (  2.4%)
COSX gradient               ....      26.588 sec  (  5.6%)
XC gradient                 ....     114.056 sec  ( 23.8%)
CPCM gradient               ....       9.633 sec  (  2.0%)
   A-Matrix (El+Nuc)        ....       0.243 sec  (  0.1%)
   Potential                ....       9.390 sec  (  2.0%)

Maximum memory used throughout the entire CIS-calculation: 268.3 MB
=> NOW LEAVING ORCA_CIS


-------------------------------------------------------------------------------
                          DFT DISPERSION CORRECTION                            
                                                                               
                              DFTD3 V3.1  Rev 1                                
                          USING Becke-Johnson damping                          
-------------------------------------------------------------------------------
-------------------------   ----------------
Dispersion correction           -0.077348515
-------------------------   ----------------


-------------------------   --------------------
FINAL SINGLE POINT ENERGY      -878.340809675024
-------------------------   --------------------

------------------------------------------------------------------------------
                         ORCA GEOMETRY RELAXATION STEP
------------------------------------------------------------------------------

Reading the OPT-File                    .... done
Getting information on internals        .... done
Copying old internal coords+grads       .... done
Making the new internal coordinates     .... (2022 redundants) done
Validating the new internal coordinates .... (2022 redundants) done
Calculating the B-matrix                .... done
Calculating the G,G- and P matrices     .... done
Transforming gradient to internals      .... done
Projecting the internal gradient        .... done
Number of atoms                         ....  35
Number of internal coordinates          .... 181
Current Energy                          ....  -878.340809675 Eh
Current gradient norm                   ....     0.000531810 Eh/bohr
Maximum allowed component of the step   ....  0.300
Current trust radius                    ....  0.100
Updating the Hessian (BFGS)             .... done
Forming the augmented Hessian           .... done
Diagonalizing the augmented Hessian     .... done
Last element of RFO vector              ....  0.999821436
Lowest eigenvalues of augmented Hessian:
 -0.000001755  0.002276116  0.014834102  0.015728470  0.020078239
Length of the computed step             ....  0.018900349
The final length of the internal step   ....  0.018900349
Converting the step to Cartesian space:
 Initial RMS(Int)=    0.0014048519
Transforming coordinates:
 Iter   0:  RMS(Cart)=    0.0063438603 RMS(Int)=    0.0014046580
done
Storing new coordinates                 .... done
The predicted energy change is          ....    -0.000000878
Previously predicted energy change      ....    -0.000000808
Actually observed energy change         ....    -0.000001528
Ratio of predicted to observed change   ....     1.889692514
New trust radius                        ....     0.100000000

                                .--------------------.
          ----------------------|Geometry convergence|-------------------------
          Item                value                   Tolerance       Converged
          ---------------------------------------------------------------------
          Energy change      -0.0000015277            0.0000050000      YES
          RMS gradient        0.0000276535            0.0001000000      YES
          MAX gradient        0.0001480401            0.0003000000      YES
          RMS step            0.0014048519            0.0020000000      YES
          MAX step            0.0065687431            0.0040000000      NO
          ........................................................
          Max(Bonds)      0.0005      Max(Angles)    0.09
          Max(Dihed)        0.38      Max(Improp)    0.00
          ---------------------------------------------------------------------

The optimization has not yet converged - more geometry cycles are needed


    ---------------------------------------------------------------------------
                         Redundant Internal Coordinates
                            (Angstroem and degrees)

        Definition                    Value    dE/dq     Step     New-Value
    ----------------------------------------------------------------------------
     1. B(C   1,C   0)                1.3883  0.000020  0.0000    1.3883   
     2. B(C   2,C   1)                1.3772  0.000009  0.0000    1.3773   
     3. B(C   3,C   0)                1.4085 -0.000006  0.0000    1.4085   
     4. B(C   4,C   3)                1.4185  0.000110 -0.0005    1.4180   
     5. B(O   5,C   3)                1.3527 -0.000021  0.0004    1.3531   
     6. B(C   6,C   4)                1.4286  0.000025  0.0001    1.4287   
     7. B(C   6,C   2)                1.4302  0.000032  0.0001    1.4302   
     8. B(C   7,C   6)                1.3986  0.000044 -0.0000    1.3986   
     9. B(C   8,C   7)                1.3811  0.000027  0.0000    1.3811   
    10. B(C   9,C   4)                1.4281  0.000017  0.0000    1.4281   
    11. B(C  10,C   9)                1.4055  0.000088 -0.0002    1.4053   
    12. B(C  10,C   8)                1.4158 -0.000008  0.0002    1.4159   
    13. B(N  11,C   9)                1.3869  0.000020  0.0001    1.3870   
    14. B(C  12,N  11)                1.3738 -0.000007  0.0001    1.3739   
    15. B(C  13,C  12)                1.3665  0.000023 -0.0000    1.3665   
    16. B(C  14,C  13)                1.4005  0.000009  0.0000    1.4005   
    17. B(C  14,C  10)                1.4208  0.000065 -0.0001    1.4207   
    18. B(C  15,O   5)                1.4184 -0.000148  0.0001    1.4185   
    19. B(O  16,C  15)                1.2123  0.000045 -0.0000    1.2123   
    20. B(N  17,C  15)                1.3308  0.000048 -0.0000    1.3308   
    21. B(C  18,N  17)                1.4601  0.000043 -0.0000    1.4601   
    22. B(C  19,N  17)                1.4616  0.000038 -0.0001    1.4616   
    23. B(H  20,C  19)                1.0834  0.000015  0.0000    1.0834   
    24. B(H  21,C  19)                1.0901 -0.000000 -0.0000    1.0901   
    25. B(H  22,C  19)                1.0917 -0.000001 -0.0000    1.0917   
    26. B(H  23,C  18)                1.0844 -0.000005  0.0000    1.0844   
    27. B(H  24,C  18)                1.0913  0.000004 -0.0000    1.0913   
    28. B(H  25,C  18)                1.0909 -0.000002  0.0000    1.0909   
    29. B(H  26,C   2)                1.0816 -0.000004 -0.0000    1.0816   
    30. B(H  27,C   0)                1.0793  0.000019  0.0000    1.0793   
    31. B(H  28,C   1)                1.0802  0.000001 -0.0000    1.0802   
    32. B(H  29,C   7)                1.0813 -0.000003  0.0000    1.0813   
    33. B(H  30,C   8)                1.0823 -0.000002 -0.0000    1.0823   
    34. B(H  31,C  12)                1.0787 -0.000001 -0.0000    1.0786   
    35. B(H  32,C  13)                1.0804 -0.000003 -0.0000    1.0804   
    36. B(H  33,C  14)                1.0795 -0.000005 -0.0000    1.0795   
    37. B(H  34,O   5)                1.9493  0.000009  0.0004    1.9498   
    38. B(H  34,N  11)                1.0052  0.000004  0.0000    1.0052   
    39. A(C   1,C   0,H  27)          120.32  0.000022   -0.00    120.31   
    40. A(C   1,C   0,C   3)          121.11 -0.000048    0.02    121.14   
    41. A(C   3,C   0,H  27)          118.55  0.000027   -0.02    118.53   
    42. A(C   0,C   1,H  28)          120.21 -0.000016    0.02    120.23   
    43. A(C   0,C   1,C   2)          118.74  0.000049   -0.03    118.71   
    44. A(C   2,C   1,H  28)          121.04 -0.000033    0.01    121.06   
    45. A(C   1,C   2,C   6)          121.38  0.000012   -0.00    121.38   
    46. A(C   1,C   2,H  26)          120.77 -0.000031    0.01    120.77   
    47. A(C   6,C   2,H  26)          117.85  0.000020   -0.00    117.85   
    48. A(C   4,C   3,O   5)          118.55 -0.000018    0.03    118.58   
    49. A(C   0,C   3,C   4)          122.18  0.000017    0.00    122.18   
    50. A(C   0,C   3,O   5)          119.15  0.000002   -0.04    119.11   
    51. A(C   3,C   4,C   9)          125.79 -0.000023    0.01    125.80   
    52. A(C   6,C   4,C   9)          118.52  0.000016   -0.00    118.52   
    53. A(C   3,C   4,C   6)          115.69  0.000007   -0.01    115.68   
    54. A(C   3,O   5,C  15)          120.13  0.000077   -0.09    120.04   
    55. A(C   2,C   6,C   7)          118.89  0.000015   -0.00    118.89   
    56. A(C   4,C   6,C   7)          120.21  0.000021   -0.01    120.20   
    57. A(C   2,C   6,C   4)          120.90 -0.000036    0.01    120.91   
    58. A(C   8,C   7,H  29)          120.43  0.000062   -0.02    120.41   
    59. A(C   6,C   7,H  29)          119.36 -0.000033    0.01    119.37   
    60. A(C   6,C   7,C   8)          120.21 -0.000029    0.01    120.22   
    61. A(C   7,C   8,H  30)          119.93  0.000035   -0.01    119.92   
    62. A(C  10,C   8,H  30)          118.33 -0.000044    0.02    118.35   
    63. A(C   7,C   8,C  10)          121.74  0.000009   -0.00    121.74   
    64. A(C  10,C   9,N  11)          117.07 -0.000010    0.01    117.08   
    65. A(C   4,C   9,C  10)          120.77 -0.000049    0.02    120.78   
    66. A(C   4,C   9,N  11)          122.16  0.000059   -0.02    122.14   
    67. A(C   8,C  10,C  14)          120.62 -0.000006    0.01    120.63   
    68. A(C   9,C  10,C  14)          120.83 -0.000026    0.00    120.83   
    69. A(C   8,C  10,C   9)          118.55  0.000032   -0.01    118.54   
    70. A(C   9,N  11,H  34)          118.69 -0.000123    0.04    118.73   
    71. A(C   9,N  11,C  12)          122.57  0.000021   -0.01    122.56   
    72. A(C  12,N  11,H  34)          118.74  0.000103   -0.04    118.70   
    73. A(N  11,C  12,H  31)          115.39  0.000002    0.00    115.39   
    74. A(C  13,C  12,H  31)          123.82 -0.000004    0.00    123.82   
    75. A(N  11,C  12,C  13)          120.79  0.000002   -0.00    120.79   
    76. A(C  12,C  13,H  32)          119.04 -0.000013   -0.00    119.04   
    77. A(C  12,C  13,C  14)          119.75  0.000009    0.00    119.75   
    78. A(C  14,C  13,H  32)          121.21  0.000004   -0.00    121.21   
    79. A(C  10,C  14,H  33)          119.36 -0.000013    0.00    119.36   
    80. A(C  10,C  14,C  13)          118.99  0.000005    0.00    118.99   
    81. A(C  13,C  14,H  33)          121.65  0.000008   -0.00    121.65   
    82. A(O  16,C  15,N  17)          128.74 -0.000054    0.00    128.74   
    83. A(O   5,C  15,N  17)          110.70  0.000004   -0.01    110.69   
    84. A(O   5,C  15,O  16)          120.51  0.000051    0.01    120.52   
    85. A(C  18,N  17,C  19)          115.76 -0.000011    0.01    115.77   
    86. A(C  15,N  17,C  19)          125.19 -0.000006   -0.02    125.17   
    87. A(C  15,N  17,C  18)          118.99  0.000017    0.01    119.00   
    88. A(H  24,C  18,H  25)          108.94 -0.000010   -0.00    108.93   
    89. A(H  23,C  18,H  25)          109.71  0.000005   -0.01    109.70   
    90. A(N  17,C  18,H  25)          109.42  0.000003    0.01    109.43   
    91. A(H  23,C  18,H  24)          109.69 -0.000003   -0.00    109.69   
    92. A(N  17,C  18,H  24)          109.33  0.000010   -0.00    109.33   
    93. A(N  17,C  18,H  23)          109.74 -0.000005    0.01    109.75   
    94. A(H  21,C  19,H  22)          108.88  0.000018   -0.01    108.87   
    95. A(H  20,C  19,H  22)          109.64  0.000005    0.00    109.64   
    96. A(N  17,C  19,H  22)          109.91 -0.000042    0.05    109.96   
    97. A(H  20,C  19,H  21)          109.07  0.000005   -0.01    109.05   
    98. A(N  17,C  19,H  21)          108.39  0.000008   -0.02    108.37   
    99. A(N  17,C  19,H  20)          110.91  0.000007   -0.01    110.90   
   100. D(H  28,C   1,C   0,H  27)      1.34  0.000000   -0.01      1.33   
   101. D(C   2,C   1,C   0,C   3)      0.64  0.000001   -0.02      0.62   
   102. D(H  28,C   1,C   0,C   3)    179.75  0.000002   -0.00    179.74   
   103. D(C   2,C   1,C   0,H  27)   -177.77 -0.000001   -0.02   -177.79   
   104. D(C   6,C   2,C   1,C   0)      0.08 -0.000008    0.02      0.10   
   105. D(C   6,C   2,C   1,H  28)   -179.03 -0.000009    0.01   -179.02   
   106. D(H  26,C   2,C   1,H  28)      0.47 -0.000002   -0.01      0.45   
   107. D(H  26,C   2,C   1,C   0)    179.57 -0.000001    0.00    179.57   
   108. D(O   5,C   3,C   0,H  27)      1.36  0.000002    0.02      1.38   
   109. D(O   5,C   3,C   0,C   1)   -177.07 -0.000000    0.01   -177.06   
   110. D(C   4,C   3,C   0,H  27)    177.27  0.000012   -0.00    177.26   
   111. D(C   4,C   3,C   0,C   1)     -1.17  0.000010   -0.01     -1.18   
   112. D(C   6,C   4,C   3,O   5)    176.83 -0.000001    0.01    176.84   
   113. D(C   6,C   4,C   3,C   0)      0.90 -0.000013    0.03      0.93   
   114. D(C   9,C   4,C   3,O   5)     -3.68 -0.000001    0.01     -3.68   
   115. D(C   9,C   4,C   3,C   0)   -179.61 -0.000012    0.03   -179.58   
   116. D(C  15,O   5,C   3,C   4)    143.49  0.000023   -0.34    143.15   
   117. D(C  15,O   5,C   3,C   0)    -40.45  0.000035   -0.37    -40.82   
   118. D(C   7,C   6,C   4,C   9)     -0.26  0.000004   -0.03     -0.28   
   119. D(C   7,C   6,C   4,C   3)    179.27  0.000004   -0.03    179.24   
   120. D(C   2,C   6,C   4,C   9)   -179.71  0.000006   -0.03   -179.74   
   121. D(C   2,C   6,C   4,C   3)     -0.18  0.000006   -0.03     -0.22   
   122. D(C   7,C   6,C   2,H  26)      0.73 -0.000001    0.02      0.75   
   123. D(C   7,C   6,C   2,C   1)   -179.76  0.000006    0.00   -179.76   
   124. D(C   4,C   6,C   2,H  26)   -179.81 -0.000003    0.02   -179.78   
   125. D(C   4,C   6,C   2,C   1)     -0.30  0.000004    0.01     -0.29   
   126. D(H  29,C   7,C   6,C   4)   -179.66 -0.000001    0.02   -179.64   
   127. D(H  29,C   7,C   6,C   2)     -0.20 -0.000004    0.03     -0.17   
   128. D(C   8,C   7,C   6,C   4)      0.41 -0.000002    0.02      0.43   
   129. D(C   8,C   7,C   6,C   2)    179.88 -0.000005    0.02    179.90   
   130. D(C  10,C   8,C   7,C   6)     -0.42 -0.000001    0.00     -0.42   
   131. D(H  30,C   8,C   7,H  29)     -0.34  0.000000   -0.01     -0.36   
   132. D(H  30,C   8,C   7,C   6)    179.58  0.000001   -0.01    179.57   
   133. D(C  10,C   8,C   7,H  29)    179.65 -0.000002   -0.00    179.65   
   134. D(N  11,C   9,C   4,C   6)    179.80 -0.000005    0.02    179.82   
   135. D(N  11,C   9,C   4,C   3)      0.33 -0.000005    0.02      0.34   
   136. D(C  10,C   9,C   4,C   6)      0.11 -0.000003    0.01      0.12   
   137. D(C  10,C   9,C   4,C   3)   -179.36 -0.000003    0.02   -179.35   
   138. D(C  14,C  10,C   9,N  11)      0.12  0.000001    0.00      0.12   
   139. D(C  14,C  10,C   9,C   4)    179.83 -0.000001    0.00    179.83   
   140. D(C   8,C  10,C   9,N  11)   -179.82  0.000001    0.00   -179.82   
   141. D(C   8,C  10,C   9,C   4)     -0.11 -0.000001    0.01     -0.11   
   142. D(C  14,C  10,C   8,H  30)      0.33  0.000001   -0.00      0.33   
   143. D(C  14,C  10,C   8,C   7)   -179.67  0.000003   -0.01   -179.68   
   144. D(C   9,C  10,C   8,H  30)   -179.73  0.000001   -0.01   -179.73   
   145. D(C   9,C  10,C   8,C   7)      0.27  0.000003   -0.01      0.26   
   146. D(H  34,N  11,C   9,C  10)   -179.61 -0.000005    0.07   -179.54   
   147. D(H  34,N  11,C   9,C   4)      0.69 -0.000003    0.06      0.76   
   148. D(C  12,N  11,C   9,C  10)     -0.23 -0.000003    0.00     -0.23   
   149. D(C  12,N  11,C   9,C   4)   -179.93 -0.000001   -0.00   -179.94   
   150. D(H  31,C  12,N  11,H  34)     -0.63  0.000005   -0.08     -0.71   
   151. D(H  31,C  12,N  11,C   9)    180.00  0.000004   -0.01    179.98   
   152. D(C  13,C  12,N  11,H  34)    179.52  0.000003   -0.06    179.45   
   153. D(C  13,C  12,N  11,C   9)      0.14  0.000002    0.00      0.15   
   154. D(H  32,C  13,C  12,H  31)      0.01 -0.000003    0.02      0.03   
   155. D(H  32,C  13,C  12,N  11)    179.85 -0.000000   -0.00    179.85   
   156. D(C  14,C  13,C  12,H  31)   -179.78 -0.000002    0.01   -179.77   
   157. D(C  14,C  13,C  12,N  11)      0.06 -0.000000   -0.01      0.06   
   158. D(C  10,C  14,C  13,C  12)     -0.17 -0.000001    0.01     -0.16   
   159. D(H  33,C  14,C  10,C   9)   -179.58  0.000001   -0.01   -179.58   
   160. D(H  33,C  14,C  10,C   8)      0.36  0.000001   -0.01      0.35   
   161. D(C  13,C  14,C  10,C   9)      0.07  0.000001   -0.01      0.07   
   162. D(C  13,C  14,C  10,C   8)   -179.99  0.000001   -0.01   -180.00   
   163. D(H  33,C  14,C  13,H  32)     -0.31 -0.000001    0.00     -0.30   
   164. D(H  33,C  14,C  13,C  12)    179.47 -0.000002    0.01    179.48   
   165. D(C  10,C  14,C  13,H  32)   -179.95 -0.000001    0.00   -179.95   
   166. D(N  17,C  15,O   5,C   3)    156.92  0.000022    0.09    157.01   
   167. D(O  16,C  15,O   5,C   3)    -25.37  0.000038    0.07    -25.29   
   168. D(C  19,N  17,C  15,O  16)    178.35 -0.000006   -0.02    178.33   
   169. D(C  19,N  17,C  15,O   5)     -4.17  0.000015   -0.04     -4.21   
   170. D(C  18,N  17,C  15,O  16)     -4.65 -0.000005   -0.03     -4.67   
   171. D(C  18,N  17,C  15,O   5)    172.83  0.000016   -0.05    172.78   
   172. D(H  25,C  18,N  17,C  15)    120.60  0.000012   -0.20    120.40   
   173. D(H  24,C  18,N  17,C  19)     57.11  0.000010   -0.21     56.90   
   174. D(H  24,C  18,N  17,C  15)   -120.17  0.000008   -0.20   -120.37   
   175. D(H  23,C  18,N  17,C  19)    177.45  0.000009   -0.21    177.24   
   176. D(H  23,C  18,N  17,C  15)      0.17  0.000007   -0.20     -0.03   
   177. D(H  22,C  19,N  17,C  15)    107.03  0.000009   -0.34    106.69   
   178. D(H  21,C  19,N  17,C  18)     48.83  0.000009   -0.34     48.50   
   179. D(H  21,C  19,N  17,C  15)   -134.08  0.000011   -0.34   -134.42   
   180. D(H  20,C  19,N  17,C  18)    168.54  0.000025   -0.37    168.17   
   181. D(H  20,C  19,N  17,C  15)    -14.37  0.000027   -0.38    -14.75   
    ----------------------------------------------------------------------------

Geometry step timings:
Preparation and reading OPT file:      0.001 s ( 5.951 %)
Internal coordinates            :      0.000 s ( 0.105 %)
B/P matrices and projection     :      0.002 s ( 9.871 %)
Hessian update/contruction      :      0.010 s (41.677 %)
Making the step                 :      0.002 s ( 6.752 %)
Converting the step to Cartesian:      0.000 s ( 0.745 %)
Storing new data                :      0.003 s (11.514 %)
Checking convergence            :      0.000 s ( 0.087 %)
Final printing                  :      0.005 s (23.285 %)
Total time                      :      0.023 s

Time for energy+gradient        :    825.345 s
Time for complete geometry iter :    825.479 s

         *************************************************************
         *                GEOMETRY OPTIMIZATION CYCLE   8            *
         *************************************************************
---------------------------------
CARTESIAN COORDINATES (ANGSTROEM)
---------------------------------
  C     -3.074079   -0.664681   -0.033999
  C     -2.659453   -1.739623   -0.808657
  C     -1.335925   -1.814382   -1.182182
  C     -2.170527    0.342547    0.357224
  C     -0.797177    0.302846    0.006564
  O     -2.604616    1.339950    1.161914
  C     -0.392952   -0.814288   -0.786992
  C      0.937401   -0.939296   -1.199913
  C      1.870572    0.011566   -0.835797
  C      0.185603    1.274141    0.367444
  C      1.520288    1.136448   -0.050399
  N     -0.124848    2.389047    1.131938
  C      0.813245    3.329400    1.483028
  C      2.113803    3.203176    1.083118
  C      2.498089    2.103933    0.305001
  C     -3.883364    1.916631    0.951301
  O     -4.399603    1.885730   -0.145130
  N     -4.331830    2.486401    2.067219
  C     -5.560595    3.273382    2.015680
  C     -3.656845    2.446038    3.362957
  H     -2.883371    1.687490    3.372389
  H     -4.396250    2.209831    4.128278
  H     -3.217835    3.420644    3.585027
  H     -5.951443    3.276562    1.004201
  H     -5.347812    4.296300    2.330813
  H     -6.297674    2.840319    2.693340
  H     -0.975376   -2.640722   -1.779662
  H     -4.097238   -0.598717    0.303125
  H     -3.363967   -2.506030   -1.096882
  H      1.227430   -1.787138   -1.805055
  H      2.900225   -0.093704   -1.152237
  H      0.445407    4.149578    2.079252
  H      2.827527    3.960604    1.373291
  H      3.515054    1.978149   -0.034516
  H     -1.070794    2.508649    1.450127

----------------------------
CARTESIAN COORDINATES (A.U.)
----------------------------
  NO LB      ZA    FRAG     MASS         X           Y           Z
   0 C     6.0000    0    12.011   -5.809167   -1.256065   -0.064249
   1 C     6.0000    0    12.011   -5.025639   -3.287411   -1.528140
   2 C     6.0000    0    12.011   -2.524532   -3.428686   -2.234001
   3 C     6.0000    0    12.011   -4.101702    0.647320    0.675056
   4 C     6.0000    0    12.011   -1.506447    0.572295    0.012403
   5 O     8.0000    0    15.999   -4.922011    2.532139    2.195699
   6 C     6.0000    0    12.011   -0.742572   -1.538782   -1.487200
   7 C     6.0000    0    12.011    1.771431   -1.775012   -2.267507
   8 C     6.0000    0    12.011    3.534868    0.021857   -1.579427
   9 C     6.0000    0    12.011    0.350740    2.407778    0.694369
  10 C     6.0000    0    12.011    2.872928    2.147575   -0.095240
  11 N     7.0000    0    14.007   -0.235929    4.514644    2.139052
  12 C     6.0000    0    12.011    1.536811    6.291654    2.802516
  13 C     6.0000    0    12.011    3.994509    6.053124    2.046797
  14 C     6.0000    0    12.011    4.720703    3.975858    0.576369
  15 C     6.0000    0    12.011   -7.338495    3.621907    1.797698
  16 O     8.0000    0    15.999   -8.314044    3.563514   -0.274257
  17 N     7.0000    0    14.007   -8.185972    4.698618    3.906477
  18 C     6.0000    0    12.011  -10.508001    6.185795    3.809084
  19 C     6.0000    0    12.011   -6.910435    4.622341    6.355067
  20 H     1.0000    0     1.008   -5.448782    3.188894    6.372892
  21 H     1.0000    0     1.008   -8.307708    4.175976    7.801316
  22 H     1.0000    0     1.008   -6.080827    6.464080    6.774720
  23 H     1.0000    0     1.008  -11.246598    6.191806    1.897665
  24 H     1.0000    0     1.008  -10.105901    8.118831    4.404599
  25 H     1.0000    0     1.008  -11.900878    5.367425    5.089675
  26 H     1.0000    0     1.008   -1.843193   -4.990241   -3.363074
  27 H     1.0000    0     1.008   -7.742658   -1.131410    0.572824
  28 H     1.0000    0     1.008   -6.356976   -4.735711   -2.072806
  29 H     1.0000    0     1.008    2.319507   -3.377201   -3.411060
  30 H     1.0000    0     1.008    5.480631   -0.177075   -2.177412
  31 H     1.0000    0     1.008    0.841697    7.841566    3.929218
  32 H     1.0000    0     1.008    5.343251    7.484456    2.595144
  33 H     1.0000    0     1.008    6.642490    3.738161   -0.065226
  34 H     1.0000    0     1.008   -2.023507    4.740659    2.740343

--------------------------------
INTERNAL COORDINATES (ANGSTROEM)
--------------------------------
 C      0   0   0     0.000000000000     0.00000000     0.00000000
 C      1   0   0     1.388348046831     0.00000000     0.00000000
 C      2   1   0     1.377257524111   118.70830628     0.00000000
 C      1   2   3     1.408534380480   121.13562945     0.61665562
 C      4   1   2     1.417966237382   122.18061958   358.82442738
 O      4   1   2     1.353060181242   119.11135279   182.94209559
 C      5   4   1     1.428676601018   115.67644978     0.93472205
 C      7   5   4     1.398559956060   120.20029765   179.24366134
 C      8   7   5     1.381132729363   120.22054373     0.43116141
 C      5   4   1     1.428113472781   125.80154480   180.42087274
 C     10   5   4     1.405324138531   120.78403473   180.65063519
 N     10   5   4     1.387027213209   122.13674799     0.34251258
 C     12  10   5     1.373880757082   122.56042983   180.06395114
 C     13  12  10     1.366495936430   120.78703256     0.14717443
 C     14  13  12     1.400526355201   119.75161618     0.05743956
 C      6   4   1     1.418490334018   120.03944861   319.17937210
 O     16   6   4     1.212278174915   120.51842886   334.70787876
 N     16   6   4     1.330801643219   110.69217679   157.01106447
 C     18  16   6     1.460087913522   118.99721221   172.78195963
 C     18  16   6     1.461564600910   125.16540216   355.78727357
 H     20  18  16     1.083395069970   110.90175709   345.25012783
 H     20  18  16     1.090059828662   108.37019230   225.57895897
 H     20  18  16     1.091742515009   109.96126930   106.68760774
 H     19  18  16     1.084372044869   109.74531200   359.97098925
 H     19  18  16     1.091305418103   109.32566951   239.62751738
 H     19  18  16     1.090894565344   109.43405093   120.39567460
 H      3   2   1     1.081579848644   120.77319658   179.57297336
 H      1   2   3     1.079286453675   120.31305703   182.20808912
 H      2   1   3     1.080181786836   120.22860773   179.12563498
 H      8   7   5     1.081272251175   119.37161604   180.35911063
 H      9   8   7     1.082313568351   119.91657750   179.56975241
 H     13  12  10     1.078647758957   115.39423697   179.98491087
 H     14  13  12     1.080415853745   119.03659931   179.84971479
 H     15  14  13     1.079496725703   121.64723167   179.48282800
 H     12  10   5     1.005167470786   118.73486230     0.75646218

---------------------------
INTERNAL COORDINATES (A.U.)
---------------------------
 C      0   0   0     0.000000000000     0.00000000     0.00000000
 C      1   0   0     2.623597587075     0.00000000     0.00000000
 C      2   1   0     2.602639536453   118.70830628     0.00000000
 C      1   2   3     2.661744229320   121.13562945     0.61665562
 C      4   1   2     2.679567855799   122.18061958   358.82442738
 O      4   1   2     2.556913185261   119.11135279   182.94209559
 C      5   4   1     2.699807509866   115.67644978     0.93472205
 C      7   5   4     2.642895298822   120.20029765   179.24366134
 C      8   7   5     2.609962613090   120.22054373     0.43116141
 C      5   4   1     2.698743351720   125.80154480   180.42087274
 C     10   5   4     2.655677751212   120.78403473   180.65063519
 N     10   5   4     2.621101573261   122.13674799     0.34251258
 C     12  10   5     2.596258371550   122.56042983   180.06395114
 C     13  12  10     2.582303082969   120.78703256     0.14717443
 C     14  13  12     2.646611254668   119.75161618     0.05743956
 C      6   4   1     2.680558254909   120.03944861   319.17937210
 O     16   6   4     2.290873748719   120.51842886   334.70787876
 N     16   6   4     2.514850644257   110.69217679   157.01106447
 C     18  16   6     2.759166288006   118.99721221   172.78195963
 C     18  16   6     2.761956822754   125.16540216   355.78727357
 H     20  18  16     2.047319977084   110.90175709   345.25012783
 H     20  18  16     2.059914545760   108.37019230   225.57895897
 H     20  18  16     2.063094362125   109.96126930   106.68760774
 H     19  18  16     2.049166192082   109.74531200   359.97098925
 H     19  18  16     2.062268368679   109.32566951   239.62751738
 H     19  18  16     2.061491969484   109.43405093   120.39567460
 H      3   2   1     2.043889705905   120.77319658   179.57297336
 H      1   2   3     2.039555817496   120.31305703   182.20808912
 H      2   1   3     2.041247751970   120.22860773   179.12563498
 H      8   7   5     2.043308430930   119.37161604   180.35911063
 H      9   8   7     2.045276235210   119.91657750   179.56975241
 H     13  12  10     2.038348859396   115.39423697   179.98491087
 H     14  13  12     2.041690074326   119.03659931   179.84971479
 H     15  14  13     2.039953174044   121.64723167   179.48282800
 H     12  10   5     1.899491238511   118.73486230     0.75646218

------------------------------------------------------------------------------
                   ___                                                        
                  /   \      - P O W E R E D   B Y -                         
                 /     \                                                     
                 |  |  |   _    _      __       _____    __    __             
                 |  |  |  | |  | |    /  \     |  _  \  |  |  /  |          
                  \  \/   | |  | |   /    \    | | | |  |  | /  /          
                 / \  \   | |__| |  /  /\  \   | |_| |  |  |/  /          
                |  |  |   |  __  | /  /__\  \  |    /   |      \           
                |  |  |   | |  | | |   __   |  |    \   |  |\   \          
                \     /   | |  | | |  |  |  |  | |\  \  |  | \   \       
                 \___/    |_|  |_| |__|  |__|  |_| \__\ |__|  \__/        
                                                                              
                      - O R C A' S   B I G   F R I E N D -                    
                                      &                                       
                       - I N T E G R A L  F E E D E R -                       
                                                                              
 v1 FN, 2020, v2 2021, v3 2022-2024                                           
------------------------------------------------------------------------------


----------------------
SHARK INTEGRAL PACKAGE
----------------------

Number of atoms                             ...     35
Number of basis functions                   ...    570
Number of shells                            ...    260
Maximum angular momentum                    ...      2
Integral batch strategy                     ... SHARK/LIBINT Hybrid
RI-J (if used) integral strategy            ... SPLIT-RIJ (Revised 2003 algorithm where possible)
Printlevel                                  ...      1
Contraction scheme used                     ... SEGMENTED contraction
Prescreening option                         ... SCHWARTZ
   Thresh                                   ... 2.500e-11
   Tcut                                     ... 2.500e-12
   Tpresel                                  ... 2.500e-12 
Coulomb Range Separation                    ... NOT USED
Exchange Range Separation                   ... NOT USED
Multipole approximations                    ... NOT USED
Finite Nucleus Model                        ... NOT USED
CABS basis                                  ... NOT available
Auxiliary Coulomb fitting basis             ... AVAILABLE
   # of basis functions in Aux-J            ...   1145
   # of shells in Aux-J                     ...    375
   Maximum angular momentum in Aux-J        ...      4
Auxiliary J/K fitting basis                 ... NOT available
Auxiliary Correlation fitting basis         ... AVAILABLE
   # of basis functions in Aux-C            ...   1745
   # of shells in Aux-C                     ...    545
   Maximum angular momentum in Aux-C        ...      4
Auxiliary 'external' fitting basis          ... NOT available

Checking pre-screening integrals            ... done (  0.0 sec) Dimension = 260
Check shell pair data                       ... done (  0.0 sec)
Shell pair information
Shell pair cut-off parameter TPreSel        ...   2.5e-12
Total number of shell pairs                 ...     33930
Shell pairs after pre-screening             ...     25290
Total number of primitive shell pairs       ...    111170
Primitive shell pairs kept                  ...     55023
          la=0 lb=0:   7471 shell pairs
          la=1 lb=0:   8326 shell pairs
          la=1 lb=1:   2327 shell pairs
          la=2 lb=0:   4206 shell pairs
          la=2 lb=1:   2345 shell pairs
          la=2 lb=2:    615 shell pairs

Calculating one electron integrals          ... done (  0.1 sec)
Calculating RI/J V-Matrix + Cholesky decomp.... done (  0.4 sec)
Calculating RI/C V-Matrix + Cholesky decomp.... done (  0.6 sec)
Calculating Nuclear repulsion               ... done (  0.0 sec) ENN=   1507.261114460064 Eh

Diagonalization of the overlap matrix:
Smallest eigenvalue                        ... 3.486e-06
Time for diagonalization                   ...    0.029 sec
Threshold for overlap eigenvalues          ... 1.000e-07
Number of eigenvalues below threshold      ... 0
Time for construction of square roots      ...    0.041 sec
Total time needed                          ...    0.079 sec

-------------------
DFT GRID GENERATION
-------------------

General Integration Accuracy     IntAcc      ... 4.388
Radial Grid Type                 RadialGrid  ... OptM3 with GC (2021)
Angular Grid (max. ang.)         AngularGrid ... 4 (Lebedev-302)
Angular grid pruning method      GridPruning ... 4 (adaptive)
Weight generation scheme         WeightScheme... mBecke (2022)
Basis function cutoff            BFCut       ... 1.0000e-11
Integration weight cutoff        WCut        ... 1.0000e-14
Partially contracted basis set               ... off
Rotationally invariant grid construction     ... off
Angular grids for H and He will be reduced by one unit

Total number of grid points                  ...   167560
Total number of batches                      ...     2638
Average number of points per batch           ...       63
Average number of grid points per atom       ...     4787

--------------------
COSX GRID GENERATION
--------------------

GRIDX 1
-------
General Integration Accuracy     IntAcc      ... 3.816
Radial Grid Type                 RadialGrid  ... OptM3 with GC (2021)
Angular Grid (max. ang.)         AngularGrid ... 1 (Lebedev-50)
Angular grid pruning method      GridPruning ... 4 (adaptive)
Weight generation scheme         WeightScheme... mBecke (2022)
Basis function cutoff            BFCut       ... 1.0000e-11
Integration weight cutoff        WCut        ... 1.0000e-14
Partially contracted basis set               ... on
Rotationally invariant grid construction     ... off
Angular grids for H and He will be reduced by one unit

Total number of grid points                  ...    21317
Total number of batches                      ...      185
Average number of points per batch           ...      115
Average number of grid points per atom       ...      609
UseSFitting                                  ... on

GRIDX 2
-------
General Integration Accuracy     IntAcc      ... 4.020
Radial Grid Type                 RadialGrid  ... OptM3 with GC (2021)
Angular Grid (max. ang.)         AngularGrid ... 2 (Lebedev-110)
Angular grid pruning method      GridPruning ... 4 (adaptive)
Weight generation scheme         WeightScheme... mBecke (2022)
Basis function cutoff            BFCut       ... 1.0000e-11
Integration weight cutoff        WCut        ... 1.0000e-14
Partially contracted basis set               ... on
Rotationally invariant grid construction     ... off
Angular grids for H and He will be reduced by one unit

Total number of grid points                  ...    46386
Total number of batches                      ...      376
Average number of points per batch           ...      123
Average number of grid points per atom       ...     1325
UseSFitting                                  ... on

GRIDX 3
-------
General Integration Accuracy     IntAcc      ... 4.338
Radial Grid Type                 RadialGrid  ... OptM3 with GC (2021)
Angular Grid (max. ang.)         AngularGrid ... 3 (Lebedev-194)
Angular grid pruning method      GridPruning ... 4 (adaptive)
Weight generation scheme         WeightScheme... mBecke (2022)
Basis function cutoff            BFCut       ... 1.0000e-11
Integration weight cutoff        WCut        ... 1.0000e-14
Partially contracted basis set               ... on
Rotationally invariant grid construction     ... off
Angular grids for H and He will be reduced by one unit

Total number of grid points                  ...   101598
Total number of batches                      ...      811
Average number of points per batch           ...      125
Average number of grid points per atom       ...     2903
UseSFitting                                  ... on
Initializing property integral containers    ... done (  0.0 sec)

SHARK setup successfully completed in   7.4 seconds

Maximum memory used throughout the entire STARTUP-calculation: 107.5 MB
Occupation numbers will be reassigned to an Aufbau configuration
             **** ENERGY FILE WAS UPDATED (HBQ-H.en.tmp) ****
Finished Guess after   0.8 sec
Maximum memory used throughout the entire GUESS-calculation: 68.9 MB
--------------------
CPCM SOLVATION MODEL
--------------------
CPCM parameters:
  Epsilon                                         ...      80.1510
  Refrac                                          ...       1.3328
  Rsolv                                           ...       1.3000
  Surface type                                    ... GAUSSIAN VDW
  Discretization scheme                           ... Constant charge density
    Threshold for H atoms                         ...       5.0000 (charges/Ang^2)
    Threshold for non-H atoms                     ...       5.0000 (charges/Ang^2)
  Epsilon function type                           ...         CPCM
Solvent:                                          ... WATER
Radii:
  Scheme                                          ... Element-dependent radii
  Radius for C  used is    3.8550 Bohr (=   2.0400 Ang.)
  Radius for O  used is    3.4469 Bohr (=   1.8240 Ang.)
  Radius for N  used is    3.5149 Bohr (=   1.8600 Ang.)
  Radius for H  used is    2.4944 Bohr (=   1.3200 Ang.)
Calculating surface                               ...        done! (  0.0s)
Cavity surface points                             ...         3056
Cavity Volume                                     ...    2130.3255
Cavity Surface-area                               ...    1085.5513
Calculating surface distance matrix               ...        done! (  0.0s)
Performing Cholesky decomposition & store         ...        done! (  0.9s)
Overall time for CPCM initialization              ...                 0.9s

----------------------------------------D-I-I-S--------------------------------------------
Iteration    Energy (Eh)           Delta-E    RMSDP     MaxDP     DIISErr   Damp  Time(sec)
-------------------------------------------------------------------------------------------
               ***  Starting incremental Fock matrix formation  ***
                              *** Initializing SOSCF ***
---------------------------------------S-O-S-C-F--------------------------------------
Iteration    Energy (Eh)           Delta-E    RMSDP     MaxDP     MaxGrad    Time(sec)
--------------------------------------------------------------------------------------
    1    -878.3703162518231693     0.00e+00  6.96e-05  3.88e-03  1.23e-04    37.6
               *** Restarting incremental Fock matrix formation ***
    2    -878.3703826263795236    -6.64e-05  2.13e-05  1.17e-03  1.63e-04    36.8
    3    -878.3703892698440541    -6.64e-06  4.22e-06  2.14e-04  2.73e-05    23.3
    4    -878.3703892317580539     3.81e-08  4.49e-06  5.02e-04  5.33e-05    20.9
    5    -878.3703894158707044    -1.84e-07  9.21e-06  1.04e-03  7.88e-06    18.0
    6    -878.3703894140844568     1.79e-09  5.70e-06  6.26e-04  9.88e-06    16.8
                 **** Energy Check signals convergence ****

               *****************************************************
               *                     SUCCESS                       *
               *           SCF CONVERGED AFTER   6 CYCLES          *
               *****************************************************

Recomputing exchange energy using gridx3       ... done (   58.096 sec)
Old exchange energy                            :    -23.567378495 Eh
New exchange energy                            :    -23.567357284 Eh
Exchange energy change after final integration :      0.000021211 Eh
Total energy after final integration           :   -878.370368204 Eh
             **** ENERGY FILE WAS UPDATED (HBQ-H.en.tmp) ****

----------------
TOTAL SCF ENERGY
----------------

Total Energy       :       -878.37036820354786 Eh          -23901.67286 eV

Components:
Nuclear Repulsion  :       1507.26111446006371 Eh           41014.66007 eV
Electronic Energy  :      -2385.54444896496534 Eh          -64913.96462 eV
One Electron Energy:      -4166.18876488453952 Eh         -113367.75980 eV
Two Electron Energy:       1780.64431591957441 Eh           48453.79518 eV
CPCM Dielectric    :         -0.08705490918292 Eh              -2.36888 eV

Virial components:
Potential Energy   :      -1752.80703839112994 Eh          -47696.30435 eV
Kinetic Energy     :        874.43667018758219 Eh           23794.63149 eV
Virial Ratio       :          2.00449855106731

DFT components:
N(Alpha)           :       69.999981531830 electrons
N(Beta)            :       69.999981531830 electrons
N(Total)           :      139.999963063661 electrons
E(X)               :      -93.697077051570 Eh       
E(C)               :       -5.639006879283 Eh       
E(XC)              :      -99.336083930854 Eh       

CPCM Solvation Model Properties:
Surface-charge          :         -1.02878887296698
Corrected charge        :         -1.00000000000000
Outlying charge corr.   :          0.00004606593183 Eh               0.00125 eV
Free-energy (cav+disp)  :  This term is not implemented in the current solvation scheme

---------------
SCF CONVERGENCE
---------------

  Last Energy change         ...   -1.7862e-09  Tolerance :   1.0000e-08
  Last MAX-Density change    ...    6.2621e-04  Tolerance :   1.0000e-07
  Last RMS-Density change    ...    5.6978e-06  Tolerance :   5.0000e-09
  Last DIIS Error            ...    2.8490e-03  Tolerance :   5.0000e-07
  Last Orbital Gradient      ...    9.8823e-06  Tolerance :   1.0000e-05
  Last Orbital Rotation      ...    1.5156e-05  Tolerance :   1.0000e-05


Total SCF time: 0 days 0 hours 3 min 33 sec 
Finished LeanSCF after 213.9 sec

Maximum memory used throughout the entire LEANSCF-calculation: 132.3 MB

------------------------------------------------------------------------------
                         ORCA PROPERTY INTEGRAL CALCULATIONS
------------------------------------------------------------------------------

GBWName                                   ... HBQ-H.gbw
Number of atoms                           ...     35
Number of basis functions                 ...    570
Max core memory                           ...   1024 MB

Dipole integrals                          ... YES
Quadrupole integrals                      ...  NO
Linear momentum integrals                 ... YES
Angular momentum integrals                ... YES
Higher moments length integrals           ...  NO
Higher moments velocity integrals         ...  NO
Kinetic energy integrals                  ...  NO
GIAO right hand sides                     ...  NO
GIAO dipole derivative integrals          ...  NO
SOC integrals                             ...  NO
EPR diamagnetic integrals (GIAO)          ...  NO
EPR gauge integrals                       ...  NO
Field gradient integrals                  ...  NO (   0 nuclei)
Spin-dipole/Fermi contact integrals       ...  NO (   0 nuclei)
Contact density integrals                 ...  NO (   0 nuclei)
Nucleus-orbit integrals                   ...  NO (   0 nuclei)
Geometric perturbations                   ...  NO (  35 nuclei)

Choice of electric origin   ... Center of mass
Position of electric origin ... ( -2.5778,  2.1445,  0.9765) 
Choice of magnetic origin   ... GIAO
Position of magnetic origin ... (  0.0000,  0.0000,  0.0000) 

Calculating integrals                     ... Electric Dipole (Length)     done (  0.7 sec)
Calculating integrals                     ... Linear Momentum              done (  0.4 sec)
Calculating integrals                     ... Angular Momentum  (ElOri)    done (  0.3 sec)

Property integrals calculated in   1.4 sec

Maximum memory used throughout the entire PROPINT-calculation: 71.3 MB
------------------------------------------------------------------------------
                        ORCA TD-DFT/TDA CALCULATION
------------------------------------------------------------------------------

Input orbitals are from        ... HBQ-H.gbw
CI-vector output               ... HBQ-H.cis
Solver                         ... FN-2001
Tamm-Dancoff approximation     ... operative
CIS-Integral strategy          ... AO-integrals
Integral handling              ... AO integral Direct
Max. core memory used          ... 512 MB
Reference state                ... RHF
Generation of triplets         ... off
Follow IRoot                   ... off
Number of operators            ... 1
Orbital ranges used for CIS calculation:
 Operator 0:  Orbitals  20... 69  to  70...569
XAS localization array:
 Operator 0:  Orbitals  -1... -1

-------------------
XC-INTEGRATION GRID
-------------------

General Integration Accuracy     IntAcc      ... 3.467
Radial Grid Type                 RadialGrid  ... OptM3 with GC (2021)
Angular Grid (max. ang.)         AngularGrid ... 1 (Lebedev-50)
Angular grid pruning method      GridPruning ... 4 (adaptive)
Weight generation scheme         WeightScheme... mBecke (2022)
Basis function cutoff            BFCut       ... 1.0000e-11
Integration weight cutoff        WCut        ... 1.0000e-14
Partially contracted basis set               ... off
Rotationally invariant grid construction     ... off
Angular grids for H and He will be reduced by one unit

Total number of grid points                  ...    24528
Total number of batches                      ...      401
Average number of points per batch           ...       61
Average number of grid points per atom       ...      701

---------------------
COSX-INTEGRATION GRID
---------------------

General Integration Accuracy     IntAcc      ... 3.067
Radial Grid Type                 RadialGrid  ... OptM3 with GC (2021)
Angular Grid (max. ang.)         AngularGrid ... 1 (Lebedev-50)
Angular grid pruning method      GridPruning ... 4 (adaptive)
Weight generation scheme         WeightScheme... mBecke (2022)
Basis function cutoff            BFCut       ... 1.0000e-11
Integration weight cutoff        WCut        ... 1.0000e-14
Partially contracted basis set               ... on
Rotationally invariant grid construction     ... off
Angular grids for H and He will be reduced by one unit

Total number of grid points                  ...    11332
Total number of batches                      ...      112
Average number of points per batch           ...      101
Average number of grid points per atom       ...      324

---------------
TD-DFT XC SETUP
---------------

DFT calculation                         ... on
Name of the grid file                   ... HBQ-H.grid_cis.tmp
RI-approximation                        ... on
Aux-basis dimension                     ... 1745
Exchange functional (TD-DFT)            ... B88
   X-Alpha parameter    XAlpha (TD-DFT) ...  0.666667
   Becke's b parameter  XBeta (TD-DFT)  ...  0.004200
Correlation functional (TD-DFT)         ... LYP
 LDA part of GGA corr.  LDAOpt (TD-DFT) ... VWN-5
Hybrid DFT                              ... on
   Exchange mixing (TD-DFT)             ...  0.200
   GGA exch. scaling (TD-DFT)           ...  0.720
   GGA corr. scaling (TD-DFT)           ...  0.810

Building densities             ... done
Calculating rho(r) on the grid ... done
Building xc-kernel on the grid ... done
                    *** TD-DFT CALCULATION INITIALIZED ***

-----------------------------
    LR-CPCM (equilibrium)
-----------------------------

Setting up LR-CPCM             ... done

------------------------
DAVIDSON-DIAGONALIZATION
------------------------

Dimension of the eigenvalue problem            ...  25000
Number of roots to be determined               ...      1
Maximum size of the expansion space            ...     10
Maximum number of iterations                   ...    100
Convergence tolerance for the residual         ...    2.500e-07
Convergence tolerance for the energies         ...    2.500e-07
Orthogonality tolerance                        ...    1.000e-14
Level Shift                                    ...    0.000e+00
Constructing the preconditioner                ... o.k.
Building the initial guess                     ... o.k.
Number of trial vectors determined             ...     10


                       ****Iteration    0****
   Time for iteration     :  TOTAL=21.4 TRAFO=0.0 RIJ=3.6 COSX=8.0 XC=1.5
   Size of expansion space: 3
   Lowest Energy          :     0.117882295901
   Maximum Energy change  :     0.117882295901 (vector 0)
   Maximum residual norm  :     0.010509355711

                       ****Iteration    1****
   Time for iteration     :  TOTAL=16.2 TRAFO=0.0 RIJ=2.5 COSX=6.8 XC=0.5
   Size of expansion space: 4
   Lowest Energy          :     0.107234103568
   Maximum Energy change  :     0.010648192333 (vector 0)
   Maximum residual norm  :     0.000216056002

                       ****Iteration    2****
   Time for iteration     :  TOTAL=16.3 TRAFO=0.0 RIJ=2.5 COSX=6.8 XC=0.5
   Size of expansion space: 5
   Lowest Energy          :     0.106975573442
   Maximum Energy change  :     0.000258530126 (vector 0)
   Maximum residual norm  :     0.000034760128

                       ****Iteration    3****
   Time for iteration     :  TOTAL=16.2 TRAFO=0.0 RIJ=2.5 COSX=6.8 XC=0.5
   Size of expansion space: 6
   Lowest Energy          :     0.106916706733
   Maximum Energy change  :     0.000058866709 (vector 0)
   Maximum residual norm  :     0.000004848324

                       ****Iteration    4****
   Time for iteration     :  TOTAL=16.5 TRAFO=0.0 RIJ=2.5 COSX=7.0 XC=0.5
   Size of expansion space: 7
   Lowest Energy          :     0.106911435193
   Maximum Energy change  :     0.000005271540 (vector 0)
   Maximum residual norm  :     0.000000699114

                       ****Iteration    5****
   Time for iteration     :  TOTAL=16.5 TRAFO=0.0 RIJ=2.5 COSX=7.0 XC=0.5
   Size of expansion space: 8
   Lowest Energy          :     0.106910644621
   Maximum Energy change  :     0.000000790572 (vector 0)
   Maximum residual norm  :     0.000000052593

      *** CONVERGENCE OF RESIDUAL NORM REACHED ***

Storing the converged CI vectors               ... HBQ-H.cis1

                 *** DAVIDSON DONE ***

Total time for solving the CIS problem:   103.565sec

------------------------------------
TD-DFT/TDA EXCITED STATES (SINGLETS)
------------------------------------

the weight of the individual excitations are printed if larger than 1.0e-02

STATE  1:  E=   0.106911 au      2.909 eV    23464.2 cm**-1 <S**2> =   0.000000 Mult 1
    67a ->  71a  :     0.014098 (c=  0.11873595)
    69a ->  70a  :     0.966103 (c= -0.98290553)


-----------------------------
TD-DFT/TDA-EXCITATION SPECTRA
-----------------------------

Center of mass = ( -2.5778,  2.1445,  0.9765)
Generating CIS transition densities           ... done

----------------------------------------------------------------------------------------------------
                     ABSORPTION SPECTRUM VIA TRANSITION ELECTRIC DIPOLE MOMENTS    
----------------------------------------------------------------------------------------------------
     Transition      Energy     Energy  Wavelength fosc(D2)      D2        DX        DY        DZ   
                      (eV)      (cm-1)    (nm)                 (au**2)    (au)      (au)      (au)  
----------------------------------------------------------------------------------------------------
  0-1A  ->  1-1A    2.909187   23464.2   426.2   0.251481232   3.52838  -1.64889  -0.88595  -0.15694

----------------------------------------------------------------------------------------------------
                     ABSORPTION SPECTRUM VIA TRANSITION VELOCITY DIPOLE MOMENTS    
----------------------------------------------------------------------------------------------------
     Transition      Energy     Energy  Wavelength fosc(P2)      P2        PX        PY        PZ   
                      (eV)      (cm-1)    (nm)                 (au**2)    (au)      (au)      (au)  
----------------------------------------------------------------------------------------------------
  0-1A  ->  1-1A    2.909187   23464.2   426.2   0.059114251   0.00948   0.08646   0.04272   0.01341

------------------------------------------------------------------------------------------
                     CD SPECTRUM VIA TRANSITION ELECTRIC DIPOLE MOMENTS    
------------------------------------------------------------------------------------------
     Transition      Energy     Energy  Wavelength    R        MX        MY        MZ   
                      (eV)      (cm-1)    (nm)   (1e40*cgs)   (au)      (au)      (au)  
------------------------------------------------------------------------------------------
  0-1A  ->  1-1A    2.909187   23464.2   426.2    1.20972   0.07165  -0.18755   0.32234

------------------------------------------------------------------------------------------
                     CD SPECTRUM VIA TRANSITION VELOCITY DIPOLE MOMENTS    
------------------------------------------------------------------------------------------
     Transition      Energy     Energy  Wavelength    R        MX        MY        MZ   
                      (eV)      (cm-1)    (nm)   (1e40*cgs)   (au)      (au)      (au)  
------------------------------------------------------------------------------------------
  0-1A  ->  1-1A    2.909187   23464.2   426.2   11.04952   0.07165  -0.18755   0.32234

Total run time:      105.057 sec

           *** ORCA-CIS/TD-DFT FINISHED WITHOUT ERROR ***
-----------------------
CIS/TD-DFT TOTAL ENERGY
-----------------------

    E(SCF)  =   -878.370368204 Eh
    DE(CIS) =      0.106910645 Eh (Root  1)
    ----------------------------- ---------
    E(tot)  =   -878.263457559 Eh


------------------------
TD-DFT GRADIENT XC SETUP
------------------------

Building densities                     ... done
Calculating rho(r) on the grid         ... done
Building xc-kernel on the grid         ... done
Building xc 3rd derivative on the grid ... done
                *** TD-DFT GRADIENT CALCULATION INITIALIZED ***

--------------------------
TD-DFT/TDA RELAXED DENSITY
--------------------------

Reference wavefunction             ... RHF
State of interest                  ... 1
Basis dimension                    ... 570
DFT-XC contribution needed         ... YES
RI-approximation                   ... YES
Do Coulomb                         ... YES
Do Exchange                        ... YES
Need Hartree-Fock Exchange         ... YES
facj, facx                         ...  2.000, -0.200
Conventional                       ... NO
Range separation                   ... NO
Triplet state                      ... NO
Spin Flip                          ... NO
CIS-vectors being read from        ... HBQ-H.cis
 => Number of Vectors found: 1
 => Orbital Window: 20...69 -> 70...569

Reading the CIS file                     ... done
Norm of the CI vector                    ... 1.000000000
Reading the CPCM file                    ... done
Making the CIS (pseudo)densities         ... done
Making operators G(D) and Q(T)           ... (SHARK-ok)done
Transforming the Fock operators          ... done
Making the frozen-core relaxed density   ... done
Constructing the G(H) operator           ... (SHARK-ok)done
Transforming the G(H) operator           ... done
Calculating the CIS Lagrangian           ... done
Solving the Z-vector equations           ... 

Using XC Grid                  ... (HBQ-H.grid_cpscf.tmp) 
Recalculating density on grid  ... (HBQ-H.grho_cpscf0.tmp) done
Calculating the xc-kernel      ... (HBQ-H.fxc_cpscf0.tmp) done

-------------------
SHARK CP-SCF DRIVER
-------------------

Dimension of the orbital basis          ...    570
Dimension of the CPSCF-problem          ...  35000
Number of operators                     ...      1
Max. number of iterations               ...    128
Convergence Tolerance                   ... 1.0e-04
Number of perturbations                 ...      1
Perturbation type                       ... REAL

----------------------------
POPLE LINEAR EQUATION SOLVER
----------------------------

  ITERATION   0:   ||err||_max =   1.6742e+00 (  16.4 sec)
  ITERATION   1:   ||err||_max =   8.8874e-02 (  16.7 sec)
  ITERATION   2:   ||err||_max =   1.8837e-02 (  18.3 sec)
  ITERATION   3:   ||err||_max =   6.2868e-03 (  17.8 sec)
  ITERATION   4:   ||err||_max =   2.3483e-03 (  16.4 sec)
  ITERATION   5:   ||err||_max =   1.0198e-03 (  16.4 sec)
  ITERATION   6:   ||err||_max =   3.0565e-04 (  16.4 sec)
  ITERATION   7:   ||err||_max =   1.3144e-04 (  16.7 sec)
  ITERATION   8:   ||err||_max =   3.4308e-05 (  16.6 sec)

Finalizing the relaxed density           ... done
Storing the relaxed density              ... done
Constructing the G(Z) operator           ... (SHARK-ok)done
Adding the CPCM contribution             ... done
Adding the XC terms                      ... done
Transforming the G(Z) operator           ... done
Making the W-matrix                      ... done
Finalizing the W-matrix                  ... done
Transforming the W-matrix                ... done
Nuc. rep. gradient        (SHARK) ... done (  0.0 sec)
HCore & Overlap gradient  (SHARK) ... done (  2.0 sec)
Split-RIJ-J gradient      (SHARK) ... done ( 11.5 sec)
COSX-gradient                     ... done (112.5 sec)
CPCM gradient                     ... done (  9.5 sec)
Dispersion correction             ... done (  0.0 sec)

-------------------
DISPERSION GRADIENT
-------------------

   1   C   :   -0.000564793   -0.000590410   -0.000110619
   2   C   :   -0.000486285   -0.000674994   -0.000243698
   3   C   :   -0.000232202   -0.000731260   -0.000384862
   4   C   :   -0.000443916   -0.000289277   -0.000044946
   5   C   :   -0.000004756   -0.000222097   -0.000067230
   6   O   :   -0.000240167    0.000048749    0.000105330
   7   C   :    0.000139566   -0.000567561   -0.000371336
   8   C   :    0.000577749   -0.000522916   -0.000466441
   9   C   :    0.000702803   -0.000372786   -0.000403191
  10   C   :    0.000264511    0.000257762    0.000112063
  11   C   :    0.000659104    0.000048015   -0.000130701
  12   N   :    0.000202723    0.000586335    0.000298931
  13   C   :    0.000202937    0.000701681    0.000370482
  14   C   :    0.000450726    0.000563829    0.000236363
  15   C   :    0.000743321    0.000360189    0.000038846
  16   C   :   -0.000586447    0.000236582   -0.000212939
  17   O   :   -0.000443886    0.000238079   -0.000493876
  18   N   :   -0.000384318    0.000287799    0.000254229
  19   C   :   -0.000469068    0.000301523    0.000033401
  20   C   :   -0.000082334    0.000113450    0.000688049
  21   H   :    0.000002383   -0.000031354    0.000444780
  22   H   :   -0.000010861   -0.000037020    0.000330394
  23   H   :    0.000066113    0.000162010    0.000337976
  24   H   :   -0.000237325    0.000135077   -0.000089422
  25   H   :   -0.000193625    0.000266520    0.000025585
  26   H   :   -0.000307571    0.000076553    0.000081334
  27   H   :   -0.000000696   -0.000334082   -0.000206219
  28   H   :   -0.000324465   -0.000236298   -0.000002382
  29   H   :   -0.000216061   -0.000257393   -0.000098355
  30   H   :    0.000214545   -0.000257356   -0.000214392
  31   H   :    0.000334896   -0.000137593   -0.000167204
  32   H   :   -0.000014291    0.000304194    0.000182034
  33   H   :    0.000210325    0.000232524    0.000091695
  34   H   :    0.000375683    0.000070533   -0.000051094
  35   H   :    0.000095681    0.000270991    0.000127415

Difference to translation invariance:
           :   -0.0000000000   -0.0000000000   -0.0000000000

Difference to rotation invariance:
           :   -0.0000000000   -0.0000000000    0.0000000000

Norm of the Dispersion gradient    ...    0.0034228150
RMS gradient                       ...    0.0003340325
MAX gradient                       ...    0.0007433205

                 ---------------------------
                 EXCITED STATE GRADIENT DONE
                 ---------------------------

------------------
CARTESIAN GRADIENT
------------------

   1   C   :    0.000013240    0.000001495    0.000029206
   2   C   :   -0.000058134   -0.000074943    0.000025478
   3   C   :   -0.000011402   -0.000053204   -0.000023109
   4   C   :    0.000117543   -0.000072243   -0.000079270
   5   C   :   -0.000093138    0.000055920    0.000040594
   6   O   :   -0.000119599    0.000096419    0.000144055
   7   C   :    0.000001366    0.000044546    0.000033164
   8   C   :    0.000044490   -0.000007247   -0.000002749
   9   C   :    0.000033818   -0.000062876   -0.000059313
  10   C   :   -0.000008969   -0.000061112   -0.000042176
  11   C   :   -0.000031195   -0.000030589   -0.000014715
  12   N   :   -0.000023612    0.000073295    0.000024380
  13   C   :   -0.000012609    0.000052545    0.000025293
  14   C   :    0.000029693    0.000002870   -0.000041413
  15   C   :    0.000001848    0.000065479    0.000012445
  16   C   :    0.000133602   -0.000149008   -0.000063275
  17   O   :   -0.000062686    0.000032319    0.000039261
  18   N   :    0.000031846   -0.000010949   -0.000004777
  19   C   :   -0.000004286    0.000024727   -0.000002478
  20   C   :    0.000001648    0.000040275   -0.000000625
  21   H   :    0.000015754    0.000013395    0.000001977
  22   H   :    0.000010108   -0.000005598    0.000011205
  23   H   :   -0.000005126   -0.000004233    0.000017323
  24   H   :   -0.000023989   -0.000004921    0.000022097
  25   H   :   -0.000019040   -0.000005165   -0.000004593
  26   H   :    0.000010440    0.000007337    0.000011142
  27   H   :   -0.000028514   -0.000021136    0.000034417
  28   H   :   -0.000001179   -0.000002978    0.000010047
  29   H   :    0.000010089   -0.000011975    0.000022031
  30   H   :   -0.000024086   -0.000007290    0.000002828
  31   H   :   -0.000007707    0.000003188   -0.000002409
  32   H   :    0.000008548    0.000009767   -0.000028779
  33   H   :   -0.000017153    0.000012204   -0.000023897
  34   H   :   -0.000012308    0.000003155   -0.000025635
  35   H   :    0.000001591   -0.000001472   -0.000017545

Difference to translation invariance:
           :   -0.0000991085   -0.0000480012    0.0000701838

Difference to rotation invariance:
           :   -0.0014841414    0.0023224778    0.0008301601

Norm of the Cartesian gradient     ...    0.0004470353
RMS gradient                       ...    0.0000436262
MAX gradient                       ...    0.0001490083

------------------------------------------------------------------------------
                  RELAXED CIS/TDA DENSITY POPULATION ANALYSIS
                                   IROOT 1
------------------------------------------------------------------------------
------------------------------------------------------------------------------
                           ORCA POPULATION ANALYSIS
------------------------------------------------------------------------------
Input electron density              ... HBQ-H.cispre.singlet.iroot1
BaseName (.gbw .S,...)              ... HBQ-H

-------
TIMINGS
-------

Total TD-DFT gradient time  ....      475.782 sec

Fock matrix formation       ....     123.801 sec  ( 26.0%)
  Coulomb formation         ....     112.858 sec  ( 91.2% of F)
  XC integration            ....      10.943 sec  (  8.8% of F)
Z-vector equation           ....     152.807 sec  ( 32.1%)
Densities                   ....       0.000 sec  (  0.0%)
One electron gradient       ....       2.007 sec  (  0.4%)
Two electron gradient       ....       0.000 sec  (  0.0%)
RI-J Coulomb gradient       ....      11.529 sec  (  2.4%)
COSX gradient               ....      26.399 sec  (  5.5%)
XC gradient                 ....     112.456 sec  ( 23.6%)
CPCM gradient               ....       9.526 sec  (  2.0%)
   A-Matrix (El+Nuc)        ....       0.240 sec  (  0.1%)
   Potential                ....       9.286 sec  (  2.0%)

Maximum memory used throughout the entire CIS-calculation: 268.5 MB
=> NOW LEAVING ORCA_CIS


-------------------------------------------------------------------------------
                          DFT DISPERSION CORRECTION                            
                                                                               
                              DFTD3 V3.1  Rev 1                                
                          USING Becke-Johnson damping                          
-------------------------------------------------------------------------------
-------------------------   ----------------
Dispersion correction           -0.077347953
-------------------------   ----------------


-------------------------   --------------------
FINAL SINGLE POINT ENERGY      -878.340805511637
-------------------------   --------------------

------------------------------------------------------------------------------
                         ORCA GEOMETRY RELAXATION STEP
------------------------------------------------------------------------------

Reading the OPT-File                    .... done
Getting information on internals        .... done
Copying old internal coords+grads       .... done
Making the new internal coordinates     .... (2022 redundants) done
Validating the new internal coordinates .... (2022 redundants) done
Calculating the B-matrix                .... done
Calculating the G,G- and P matrices     .... done
Transforming gradient to internals      .... done
Projecting the internal gradient        .... done
Number of atoms                         ....  35
Number of internal coordinates          .... 181
Current Energy                          ....  -878.340805512 Eh
Current gradient norm                   ....     0.000447035 Eh/bohr
Maximum allowed component of the step   ....  0.300
Current trust radius                    ....  0.100
Updating the Hessian (BFGS)             .... done
Forming the augmented Hessian           .... done
Diagonalizing the augmented Hessian     .... done
Last element of RFO vector              ....  0.999993748
Lowest eigenvalues of augmented Hessian:
 -0.000000358  0.002438015  0.012215569  0.015713757  0.020063461
Length of the computed step             ....  0.003536039
The final length of the internal step   ....  0.003536039
Converting the step to Cartesian space:
 Initial RMS(Int)=    0.0002628317
Transforming coordinates:
 Iter   0:  RMS(Cart)=    0.0008867321 RMS(Int)=    0.0002628185
done
Storing new coordinates                 .... done
The predicted energy change is          ....    -0.000000179
Previously predicted energy change      ....    -0.000000878
Actually observed energy change         ....     0.000004163
Ratio of predicted to observed change   ....     4.741866314
New trust radius                        ....     0.100000000

                                .--------------------.
          ----------------------|Geometry convergence|-------------------------
          Item                value                   Tolerance       Converged
          ---------------------------------------------------------------------
          Energy change       0.0000041634            0.0000050000      YES
          RMS gradient        0.0000233305            0.0001000000      YES
          MAX gradient        0.0001013702            0.0003000000      YES
          RMS step            0.0002628317            0.0020000000      YES
          MAX step            0.0014883382            0.0040000000      YES
          ........................................................
          Max(Bonds)      0.0002      Max(Angles)    0.01
          Max(Dihed)        0.09      Max(Improp)    0.00
          ---------------------------------------------------------------------

                    ***********************HURRAY********************
                    ***        THE OPTIMIZATION HAS CONVERGED     ***
                    *************************************************


    ---------------------------------------------------------------------------
                         Redundant Internal Coordinates

                          --- Optimized Parameters ---  
                            (Angstroem and degrees)

        Definition                    OldVal   dE/dq     Step     FinalVal
    ----------------------------------------------------------------------------
     1. B(C   1,C   0)                1.3883  0.000019 -0.0000    1.3883   
     2. B(C   2,C   1)                1.3773  0.000011  0.0000    1.3773   
     3. B(C   3,C   0)                1.4085  0.000025 -0.0000    1.4085   
     4. B(C   4,C   3)                1.4180 -0.000079  0.0000    1.4180   
     5. B(O   5,C   3)                1.3531  0.000093 -0.0001    1.3530   
     6. B(C   6,C   4)                1.4287  0.000033 -0.0000    1.4286   
     7. B(C   6,C   2)                1.4302  0.000090 -0.0001    1.4302   
     8. B(C   7,C   6)                1.3986  0.000047 -0.0000    1.3985   
     9. B(C   8,C   7)                1.3811  0.000005 -0.0000    1.3811   
    10. B(C   9,C   4)                1.4281  0.000005 -0.0000    1.4281   
    11. B(C  10,C   9)                1.4053  0.000025 -0.0000    1.4053   
    12. B(C  10,C   8)                1.4159  0.000073 -0.0000    1.4159   
    13. B(N  11,C   9)                1.3870  0.000095 -0.0001    1.3870   
    14. B(C  12,N  11)                1.3739  0.000037 -0.0000    1.3739   
    15. B(C  13,C  12)                1.3665  0.000017 -0.0000    1.3665   
    16. B(C  14,C  13)                1.4005  0.000005  0.0000    1.4005   
    17. B(C  14,C  10)                1.4207  0.000064 -0.0001    1.4207   
    18. B(C  15,O   5)                1.4185 -0.000091  0.0002    1.4187   
    19. B(O  16,C  15)                1.2123 -0.000003 -0.0000    1.2123   
    20. B(N  17,C  15)                1.3308  0.000008 -0.0000    1.3308   
    21. B(C  18,N  17)                1.4601  0.000045 -0.0000    1.4601   
    22. B(C  19,N  17)                1.4616  0.000008 -0.0000    1.4615   
    23. B(H  20,C  19)                1.0834  0.000003 -0.0000    1.0834   
    24. B(H  21,C  19)                1.0901  0.000004 -0.0000    1.0901   
    25. B(H  22,C  19)                1.0917 -0.000012  0.0000    1.0918   
    26. B(H  23,C  18)                1.0844 -0.000005  0.0000    1.0844   
    27. B(H  24,C  18)                1.0913 -0.000008  0.0000    1.0913   
    28. B(H  25,C  18)                1.0909 -0.000012  0.0000    1.0909   
    29. B(H  26,C   2)                1.0816 -0.000010  0.0000    1.0816   
    30. B(H  27,C   0)                1.0793 -0.000003  0.0000    1.0793   
    31. B(H  28,C   1)                1.0802 -0.000008  0.0000    1.0802   
    32. B(H  29,C   7)                1.0813 -0.000004  0.0000    1.0813   
    33. B(H  30,C   8)                1.0823 -0.000003 -0.0000    1.0823   
    34. B(H  31,C  12)                1.0786 -0.000009  0.0000    1.0787   
    35. B(H  32,C  13)                1.0804 -0.000005  0.0000    1.0804   
    36. B(H  33,C  14)                1.0795 -0.000003  0.0000    1.0795   
    37. B(H  34,O   5)                1.9498  0.000013 -0.0002    1.9495   
    38. B(H  34,N  11)                1.0052 -0.000000  0.0000    1.0052   
    39. A(C   1,C   0,H  27)          120.31 -0.000014   -0.00    120.31   
    40. A(C   1,C   0,C   3)          121.14  0.000027    0.00    121.14   
    41. A(C   3,C   0,H  27)          118.53 -0.000013   -0.00    118.53   
    42. A(C   0,C   1,H  28)          120.23  0.000030   -0.00    120.23   
    43. A(C   0,C   1,C   2)          118.71 -0.000037    0.00    118.71   
    44. A(C   2,C   1,H  28)          121.06  0.000008    0.00    121.06   
    45. A(C   1,C   2,C   6)          121.38 -0.000004   -0.00    121.38   
    46. A(C   1,C   2,H  26)          120.77 -0.000023    0.01    120.78   
    47. A(C   6,C   2,H  26)          117.85  0.000028   -0.00    117.84   
    48. A(C   4,C   3,O   5)          118.58 -0.000006   -0.00    118.58   
    49. A(C   0,C   3,C   4)          122.18  0.000026   -0.00    122.18   
    50. A(C   0,C   3,O   5)          119.11 -0.000020    0.01    119.12   
    51. A(C   3,C   4,C   9)          125.80  0.000019   -0.00    125.80   
    52. A(C   6,C   4,C   9)          118.52 -0.000003    0.00    118.52   
    53. A(C   3,C   4,C   6)          115.68 -0.000016    0.00    115.68   
    54. A(C   3,O   5,C  15)          120.04 -0.000047    0.00    120.04   
    55. A(C   2,C   6,C   7)          118.89 -0.000013    0.00    118.89   
    56. A(C   4,C   6,C   7)          120.20  0.000009   -0.00    120.20   
    57. A(C   2,C   6,C   4)          120.91  0.000004    0.00    120.91   
    58. A(C   8,C   7,H  29)          120.41  0.000014   -0.01    120.40   
    59. A(C   6,C   7,H  29)          119.37 -0.000018    0.01    119.38   
    60. A(C   6,C   7,C   8)          120.22  0.000004    0.00    120.22   
    61. A(C   7,C   8,H  30)          119.92  0.000019   -0.01    119.91   
    62. A(C  10,C   8,H  30)          118.35  0.000005    0.00    118.35   
    63. A(C   7,C   8,C  10)          121.74 -0.000024    0.00    121.74   
    64. A(C  10,C   9,N  11)          117.08 -0.000002    0.00    117.08   
    65. A(C   4,C   9,C  10)          120.78 -0.000002    0.00    120.79   
    66. A(C   4,C   9,N  11)          122.14  0.000004   -0.01    122.13   
    67. A(C   8,C  10,C  14)          120.63  0.000016    0.00    120.63   
    68. A(C   9,C  10,C  14)          120.83 -0.000033    0.00    120.84   
    69. A(C   8,C  10,C   9)          118.54  0.000017   -0.00    118.53   
    70. A(C   9,N  11,H  34)          118.73 -0.000022    0.01    118.75   
    71. A(C   9,N  11,C  12)          122.56  0.000010   -0.00    122.56   
    72. A(C  12,N  11,H  34)          118.70  0.000012   -0.01    118.69   
    73. A(N  11,C  12,H  31)          115.39  0.000021   -0.00    115.39   
    74. A(C  13,C  12,H  31)          123.82 -0.000002    0.00    123.82   
    75. A(N  11,C  12,C  13)          120.79 -0.000019    0.00    120.79   
    76. A(C  12,C  13,H  32)          119.04 -0.000016    0.00    119.04   
    77. A(C  12,C  13,C  14)          119.75  0.000010   -0.00    119.75   
    78. A(C  14,C  13,H  32)          121.21  0.000006   -0.00    121.21   
    79. A(C  10,C  14,H  33)          119.36 -0.000021    0.00    119.37   
    80. A(C  10,C  14,C  13)          118.99  0.000033   -0.00    118.99   
    81. A(C  13,C  14,H  33)          121.65 -0.000011   -0.00    121.65   
    82. A(O  16,C  15,N  17)          128.74 -0.000073    0.01    128.76   
    83. A(O   5,C  15,N  17)          110.69 -0.000029   -0.00    110.69   
    84. A(O   5,C  15,O  16)          120.52  0.000101   -0.01    120.50   
    85. A(C  18,N  17,C  19)          115.77 -0.000012    0.00    115.78   
    86. A(C  15,N  17,C  19)          125.17  0.000008   -0.00    125.16   
    87. A(C  15,N  17,C  18)          119.00  0.000004    0.00    119.00   
    88. A(H  24,C  18,H  25)          108.93 -0.000013    0.00    108.94   
    89. A(H  23,C  18,H  25)          109.70 -0.000010    0.00    109.70   
    90. A(N  17,C  18,H  25)          109.43 -0.000007    0.00    109.43   
    91. A(H  23,C  18,H  24)          109.69 -0.000016    0.00    109.69   
    92. A(N  17,C  18,H  24)          109.33  0.000017   -0.00    109.32   
    93. A(N  17,C  18,H  23)          109.75  0.000028   -0.00    109.74   
    94. A(H  21,C  19,H  22)          108.87 -0.000012   -0.00    108.87   
    95. A(H  20,C  19,H  22)          109.64 -0.000005    0.00    109.64   
    96. A(N  17,C  19,H  22)          109.96  0.000030   -0.00    109.96   
    97. A(H  20,C  19,H  21)          109.05 -0.000003    0.00    109.05   
    98. A(N  17,C  19,H  21)          108.37 -0.000005    0.00    108.37   
    99. A(N  17,C  19,H  20)          110.90 -0.000006    0.00    110.90   
   100. D(H  28,C   1,C   0,H  27)      1.33 -0.000002    0.00      1.33   
   101. D(C   2,C   1,C   0,C   3)      0.62 -0.000005    0.01      0.62   
   102. D(H  28,C   1,C   0,C   3)    179.74 -0.000000    0.00    179.74   
   103. D(C   2,C   1,C   0,H  27)   -177.79 -0.000007    0.01   -177.79   
   104. D(C   6,C   2,C   1,C   0)      0.10  0.000000    0.00      0.10   
   105. D(C   6,C   2,C   1,H  28)   -179.02 -0.000005    0.01   -179.01   
   106. D(H  26,C   2,C   1,H  28)      0.45 -0.000008    0.01      0.47   
   107. D(H  26,C   2,C   1,C   0)    179.57 -0.000003    0.01    179.58   
   108. D(O   5,C   3,C   0,H  27)      1.38  0.000008   -0.02      1.36   
   109. D(O   5,C   3,C   0,C   1)   -177.06  0.000006   -0.02   -177.08   
   110. D(C   4,C   3,C   0,H  27)    177.26  0.000009   -0.02    177.24   
   111. D(C   4,C   3,C   0,C   1)     -1.18  0.000008   -0.02     -1.20   
   112. D(C   6,C   4,C   3,O   5)    176.84 -0.000005    0.02    176.86   
   113. D(C   6,C   4,C   3,C   0)      0.93 -0.000006    0.02      0.96   
   114. D(C   9,C   4,C   3,O   5)     -3.68 -0.000002    0.01     -3.66   
   115. D(C   9,C   4,C   3,C   0)   -179.58 -0.000003    0.02   -179.56   
   116. D(C  15,O   5,C   3,C   4)    143.15 -0.000014    0.04    143.19   
   117. D(C  15,O   5,C   3,C   0)    -40.82 -0.000011    0.04    -40.78   
   118. D(C   7,C   6,C   4,C   9)     -0.28  0.000001   -0.01     -0.29   
   119. D(C   7,C   6,C   4,C   3)    179.24  0.000004   -0.01    179.23   
   120. D(C   2,C   6,C   4,C   9)   -179.74 -0.000002   -0.01   -179.75   
   121. D(C   2,C   6,C   4,C   3)     -0.22  0.000001   -0.01     -0.23   
   122. D(C   7,C   6,C   2,H  26)      0.75  0.000002   -0.01      0.74   
   123. D(C   7,C   6,C   2,C   1)   -179.76 -0.000001    0.00   -179.76   
   124. D(C   4,C   6,C   2,H  26)   -179.78  0.000005   -0.01   -179.79   
   125. D(C   4,C   6,C   2,C   1)     -0.29  0.000001   -0.00     -0.30   
   126. D(H  29,C   7,C   6,C   4)   -179.64  0.000003    0.00   -179.64   
   127. D(H  29,C   7,C   6,C   2)     -0.17  0.000005   -0.00     -0.17   
   128. D(C   8,C   7,C   6,C   4)      0.43  0.000002    0.00      0.43   
   129. D(C   8,C   7,C   6,C   2)    179.90  0.000005   -0.00    179.90   
   130. D(C  10,C   8,C   7,C   6)     -0.42 -0.000002    0.00     -0.42   
   131. D(H  30,C   8,C   7,H  29)     -0.36 -0.000003    0.00     -0.35   
   132. D(H  30,C   8,C   7,C   6)    179.57 -0.000003    0.00    179.57   
   133. D(C  10,C   8,C   7,H  29)    179.65 -0.000002    0.00    179.66   
   134. D(N  11,C   9,C   4,C   6)    179.82 -0.000003    0.01    179.83   
   135. D(N  11,C   9,C   4,C   3)      0.34 -0.000007    0.02      0.36   
   136. D(C  10,C   9,C   4,C   6)      0.12 -0.000004    0.01      0.13   
   137. D(C  10,C   9,C   4,C   3)   -179.35 -0.000007    0.02   -179.33   
   138. D(C  14,C  10,C   9,N  11)      0.12  0.000002   -0.00      0.12   
   139. D(C  14,C  10,C   9,C   4)    179.83  0.000003   -0.00    179.83   
   140. D(C   8,C  10,C   9,N  11)   -179.82  0.000004   -0.01   -179.82   
   141. D(C   8,C  10,C   9,C   4)     -0.11  0.000004   -0.01     -0.11   
   142. D(C  14,C  10,C   8,H  30)      0.33  0.000001   -0.01      0.32   
   143. D(C  14,C  10,C   8,C   7)   -179.68 -0.000000   -0.00   -179.69   
   144. D(C   9,C  10,C   8,H  30)   -179.73 -0.000000   -0.00   -179.74   
   145. D(C   9,C  10,C   8,C   7)      0.26 -0.000001   -0.00      0.26   
   146. D(H  34,N  11,C   9,C  10)   -179.54 -0.000004    0.01   -179.54   
   147. D(H  34,N  11,C   9,C   4)      0.76 -0.000004    0.00      0.76   
   148. D(C  12,N  11,C   9,C  10)     -0.23 -0.000005    0.01     -0.22   
   149. D(C  12,N  11,C   9,C   4)   -179.94 -0.000006    0.01   -179.92   
   150. D(H  31,C  12,N  11,H  34)     -0.71 -0.000000   -0.00     -0.71   
   151. D(H  31,C  12,N  11,C   9)    179.98  0.000001   -0.01    179.98   
   152. D(C  13,C  12,N  11,H  34)    179.45  0.000002   -0.00    179.45   
   153. D(C  13,C  12,N  11,C   9)      0.15  0.000004   -0.01      0.13   
   154. D(H  32,C  13,C  12,H  31)      0.03  0.000003   -0.00      0.02   
   155. D(H  32,C  13,C  12,N  11)    179.85 -0.000000    0.00    179.85   
   156. D(C  14,C  13,C  12,H  31)   -179.77  0.000003   -0.00   -179.77   
   157. D(C  14,C  13,C  12,N  11)      0.06  0.000000    0.00      0.06   
   158. D(C  10,C  14,C  13,C  12)     -0.16 -0.000003    0.01     -0.15   
   159. D(H  33,C  14,C  10,C   9)   -179.58  0.000000   -0.00   -179.59   
   160. D(H  33,C  14,C  10,C   8)      0.35 -0.000001   -0.00      0.35   
   161. D(C  13,C  14,C  10,C   9)      0.07  0.000001   -0.01      0.06   
   162. D(C  13,C  14,C  10,C   8)   -180.00  0.000000   -0.00   -180.00   
   163. D(H  33,C  14,C  13,H  32)     -0.30 -0.000001    0.00     -0.30   
   164. D(H  33,C  14,C  13,C  12)    179.48 -0.000001    0.01    179.49   
   165. D(C  10,C  14,C  13,H  32)   -179.95 -0.000002    0.01   -179.94   
   166. D(N  17,C  15,O   5,C   3)    157.01  0.000028   -0.09    156.93   
   167. D(O  16,C  15,O   5,C   3)    -25.29  0.000005   -0.08    -25.37   
   168. D(C  19,N  17,C  15,O  16)    178.33  0.000009    0.00    178.33   
   169. D(C  19,N  17,C  15,O   5)     -4.21 -0.000011    0.00     -4.21   
   170. D(C  18,N  17,C  15,O  16)     -4.67  0.000010   -0.00     -4.68   
   171. D(C  18,N  17,C  15,O   5)    172.78 -0.000010   -0.00    172.78   
   172. D(H  25,C  18,N  17,C  15)    120.40  0.000010   -0.02    120.37   
   173. D(H  24,C  18,N  17,C  19)     56.90  0.000002   -0.02     56.88   
   174. D(H  24,C  18,N  17,C  15)   -120.37  0.000001   -0.02   -120.39   
   175. D(H  23,C  18,N  17,C  19)    177.24  0.000010   -0.03    177.22   
   176. D(H  23,C  18,N  17,C  15)     -0.03  0.000009   -0.02     -0.05   
   177. D(H  22,C  19,N  17,C  15)    106.69  0.000019   -0.05    106.64   
   178. D(H  21,C  19,N  17,C  18)     48.50  0.000018   -0.05     48.45   
   179. D(H  21,C  19,N  17,C  15)   -134.42  0.000019   -0.05   -134.47   
   180. D(H  20,C  19,N  17,C  18)    168.17  0.000008   -0.05    168.12   
   181. D(H  20,C  19,N  17,C  15)    -14.75  0.000009   -0.05    -14.80   
    ----------------------------------------------------------------------------

Geometry step timings:
Preparation and reading OPT file:      0.001 s ( 8.201 %)
Internal coordinates            :      0.000 s ( 0.149 %)
B/P matrices and projection     :      0.002 s (13.576 %)
Hessian update/contruction      :      0.007 s (40.811 %)
Making the step                 :      0.002 s ( 9.427 %)
Converting the step to Cartesian:      0.000 s ( 1.006 %)
Storing new data                :      0.001 s ( 6.279 %)
Checking convergence            :      0.000 s ( 0.101 %)
Final printing                  :      0.003 s (20.438 %)
Total time                      :      0.017 s
                 *******************************************************
                 *** FINAL ENERGY EVALUATION AT THE STATIONARY POINT ***
                 ***               (AFTER    8 CYCLES)               ***
                 *******************************************************
---------------------------------
CARTESIAN COORDINATES (ANGSTROEM)
---------------------------------
  C     -3.074015   -0.664040   -0.033663
  C     -2.659570   -1.739196   -0.808106
  C     -1.336072   -1.814205   -1.181712
  C     -2.170367    0.343244    0.357161
  C     -0.796992    0.303087    0.006622
  O     -2.604247    1.341079    1.161294
  C     -0.392979   -0.814221   -0.786733
  C      0.937321   -0.939407   -1.199678
  C      1.870614    0.011406   -0.835773
  C      0.185951    1.274223    0.367399
  C      1.520558    1.136405   -0.050489
  N     -0.124377    2.389086    1.131896
  C      0.813787    3.329449    1.482719
  C      2.114302    3.203126    1.082731
  C      2.498476    2.103735    0.304760
  C     -3.883367    1.917432    0.950846
  O     -4.399228    1.886810   -0.145745
  N     -4.332201    2.486299    2.067035
  C     -5.561240    3.272805    2.015831
  C     -3.657301    2.445420    3.362772
  H     -2.884100    1.686601    3.372080
  H     -4.396820    2.209322    4.128015
  H     -3.217955    3.419839    3.585064
  H     -5.951711    3.276757    1.004201
  H     -5.348933    4.295511    2.331991
  H     -6.298389    2.838784    2.692824
  H     -0.975601   -2.640606   -1.779174
  H     -4.097133   -0.597930    0.303588
  H     -3.364218   -2.505598   -1.096031
  H      1.227355   -1.787342   -1.804696
  H      2.900199   -0.094087   -1.152355
  H      0.446013    4.149717    2.078872
  H      2.828107    3.960555    1.372714
  H      3.515430    1.977810   -0.034747
  H     -1.070227    2.508912    1.450298

----------------------------
CARTESIAN COORDINATES (A.U.)
----------------------------
  NO LB      ZA    FRAG     MASS         X           Y           Z
   0 C     6.0000    0    12.011   -5.809046   -1.254854   -0.063614
   1 C     6.0000    0    12.011   -5.025859   -3.286604   -1.527099
   2 C     6.0000    0    12.011   -2.524811   -3.428350   -2.233111
   3 C     6.0000    0    12.011   -4.101399    0.648638    0.674937
   4 C     6.0000    0    12.011   -1.506096    0.572751    0.012513
   5 O     8.0000    0    15.999   -4.921314    2.534271    2.194528
   6 C     6.0000    0    12.011   -0.742622   -1.538654   -1.486710
   7 C     6.0000    0    12.011    1.771280   -1.775223   -2.267064
   8 C     6.0000    0    12.011    3.534948    0.021554   -1.579382
   9 C     6.0000    0    12.011    0.351396    2.407932    0.694283
  10 C     6.0000    0    12.011    2.873438    2.147495   -0.095411
  11 N     7.0000    0    14.007   -0.235038    4.514718    2.138974
  12 C     6.0000    0    12.011    1.537835    6.291746    2.801932
  13 C     6.0000    0    12.011    3.995452    6.053030    2.046065
  14 C     6.0000    0    12.011    4.721435    3.975484    0.575913
  15 C     6.0000    0    12.011   -7.338501    3.623421    1.796838
  16 O     8.0000    0    15.999   -8.313336    3.565554   -0.275417
  17 N     7.0000    0    14.007   -8.186674    4.698424    3.906130
  18 C     6.0000    0    12.011  -10.509221    6.184706    3.809369
  19 C     6.0000    0    12.011   -6.911298    4.621175    6.354717
  20 H     1.0000    0     1.008   -5.450159    3.187215    6.372308
  21 H     1.0000    0     1.008   -8.308785    4.175013    7.800817
  22 H     1.0000    0     1.008   -6.081054    6.462558    6.774788
  23 H     1.0000    0     1.008  -11.247104    6.192174    1.897665
  24 H     1.0000    0     1.008  -10.108018    8.117340    4.406825
  25 H     1.0000    0     1.008  -11.902230    5.364524    5.088700
  26 H     1.0000    0     1.008   -1.843619   -4.990021   -3.362152
  27 H     1.0000    0     1.008   -7.742459   -1.129924    0.573699
  28 H     1.0000    0     1.008   -6.357451   -4.734895   -2.071199
  29 H     1.0000    0     1.008    2.319366   -3.377588   -3.410381
  30 H     1.0000    0     1.008    5.480581   -0.177799   -2.177636
  31 H     1.0000    0     1.008    0.842842    7.841830    3.928499
  32 H     1.0000    0     1.008    5.344349    7.484364    2.594053
  33 H     1.0000    0     1.008    6.643199    3.737518   -0.065663
  34 H     1.0000    0     1.008   -2.022435    4.741156    2.740666

--------------------------------
INTERNAL COORDINATES (ANGSTROEM)
--------------------------------
 C      0   0   0     0.000000000000     0.00000000     0.00000000
 C      1   0   0     1.388339188202     0.00000000     0.00000000
 C      2   1   0     1.377263131730   118.70887787     0.00000000
 C      1   2   3     1.408526022762   121.13624628     0.62358973
 C      4   1   2     1.417973910248   122.17660765   358.80316058
 O      4   1   2     1.352980105682   119.11684396   182.92279098
 C      5   4   1     1.428641000745   115.67914721     0.95693705
 C      7   5   4     1.398532719309   120.19694459   179.23035966
 C      8   7   5     1.381125878657   120.22228518     0.43217737
 C      5   4   1     1.428090078897   125.79818114   180.43746038
 C     10   5   4     1.405275846473   120.78800853   180.66697409
 N     10   5   4     1.386967263725   122.13119935     0.36039560
 C     12  10   5     1.373867114046   122.55745680   180.07589900
 C     13  12  10     1.366486606237   120.78890073     0.13483300
 C     14  13  12     1.400531064714   119.75062801     0.05842295
 C      6   4   1     1.418668416136   120.03951084   319.21860573
 O     16   6   4     1.212254349300   120.50452695   334.62586466
 N     16   6   4     1.330766849934   110.69187795   156.92578983
 C     18  16   6     1.460051543890   118.99728875   172.78070772
 C     18  16   6     1.461538394446   125.16297804   355.79036179
 H     20  18  16     1.083389559335   110.90193511   345.19815252
 H     20  18  16     1.090058476237   108.37056954   225.52651000
 H     20  18  16     1.091755243032   109.96071738   106.63564487
 H     19  18  16     1.084379105268   109.74250341   359.94971343
 H     19  18  16     1.091310818458   109.32327177   239.60765109
 H     19  18  16     1.090909148839   109.43426067   120.37332186
 H      3   2   1     1.081591522647   120.77888870   179.58306074
 H      1   2   3     1.079295836798   120.31273748   182.21345902
 H      2   1   3     1.080186684537   120.22584044   179.12132417
 H      8   7   5     1.081276828239   119.37723550   180.35960965
 H      9   8   7     1.082311201182   119.91105150   179.57371208
 H     13  12  10     1.078655794939   115.39187265   179.97552052
 H     14  13  12     1.080420067644   119.03911497   179.85141936
 H     15  14  13     1.079498639564   121.64701711   179.48856188
 H     12  10   5     1.005171672655   118.74835214     0.76072368

---------------------------
INTERNAL COORDINATES (A.U.)
---------------------------
 C      0   0   0     0.000000000000     0.00000000     0.00000000
 C      1   0   0     2.623580846693     0.00000000     0.00000000
 C      2   1   0     2.602650133317   118.70887787     0.00000000
 C      1   2   3     2.661728435521   121.13624628     0.62358973
 C      4   1   2     2.679582355414   122.17660765   358.80316058
 O      4   1   2     2.556761864382   119.11684396   182.92279098
 C      5   4   1     2.699740235099   115.67914721     0.95693705
 C      7   5   4     2.642843828822   120.19694459   179.23035966
 C      8   7   5     2.609949667133   120.22228518     0.43217737
 C      5   4   1     2.698699143686   125.79818114   180.43746038
 C     10   5   4     2.655586492449   120.78800853   180.66697409
 N     10   5   4     2.620988285155   122.13119935     0.36039560
 C     12  10   5     2.596232589947   122.55745680   180.07589900
 C     13  12  10     2.582285451460   120.78890073     0.13483300
 C     14  13  12     2.646620154358   119.75062801     0.05842295
 C      6   4   1     2.680894781341   120.03951084   319.21860573
 O     16   6   4     2.290828724831   120.50452695   334.62586466
 N     16   6   4     2.514784894475   110.69187795   156.92578983
 C     18  16   6     2.759097559361   118.99728875   172.78070772
 C     18  16   6     2.761907299714   125.16297804   355.79036179
 H     20  18  16     2.047309563493   110.90193511   345.19815252
 H     20  18  16     2.059911990047   108.37056954   225.52651000
 H     20  18  16     2.063118414603   109.96071738   106.63564487
 H     19  18  16     2.049179534303   109.74250341   359.94971343
 H     19  18  16     2.062278573871   109.32327177   239.60765109
 H     19  18  16     2.061519528294   109.43426067   120.37332186
 H      3   2   1     2.043911766573   120.77888870   179.58306074
 H      1   2   3     2.039573549030   120.31273748   182.21345902
 H      2   1   3     2.041257007283   120.22584044   179.12132417
 H      8   7   5     2.043317080327   119.37723550   180.35960965
 H      9   8   7     2.045271761910   119.91105150   179.57371208
 H     13  12  10     2.038364045201   115.39187265   179.97552052
 H     14  13  12     2.041698037439   119.03911497   179.85141936
 H     15  14  13     2.039956790716   121.64701711   179.48856188
 H     12  10   5     1.899499178893   118.74835214     0.76072368

---------------------
BASIS SET INFORMATION
---------------------
There are 4 groups of distinct atoms

 Group   1 Type C   : 11s6p2d contracted to 5s3p2d pattern {62111/411/11}
 Group   2 Type O   : 11s6p2d contracted to 5s3p2d pattern {62111/411/11}
 Group   3 Type N   : 11s6p2d contracted to 5s3p2d pattern {62111/411/11}
 Group   4 Type H   : 5s1p contracted to 3s1p pattern {311/1}

Atom   0C    basis set group =>   1
Atom   1C    basis set group =>   1
Atom   2C    basis set group =>   1
Atom   3C    basis set group =>   1
Atom   4C    basis set group =>   1
Atom   5O    basis set group =>   2
Atom   6C    basis set group =>   1
Atom   7C    basis set group =>   1
Atom   8C    basis set group =>   1
Atom   9C    basis set group =>   1
Atom  10C    basis set group =>   1
Atom  11N    basis set group =>   3
Atom  12C    basis set group =>   1
Atom  13C    basis set group =>   1
Atom  14C    basis set group =>   1
Atom  15C    basis set group =>   1
Atom  16O    basis set group =>   2
Atom  17N    basis set group =>   3
Atom  18C    basis set group =>   1
Atom  19C    basis set group =>   1
Atom  20H    basis set group =>   4
Atom  21H    basis set group =>   4
Atom  22H    basis set group =>   4
Atom  23H    basis set group =>   4
Atom  24H    basis set group =>   4
Atom  25H    basis set group =>   4
Atom  26H    basis set group =>   4
Atom  27H    basis set group =>   4
Atom  28H    basis set group =>   4
Atom  29H    basis set group =>   4
Atom  30H    basis set group =>   4
Atom  31H    basis set group =>   4
Atom  32H    basis set group =>   4
Atom  33H    basis set group =>   4
Atom  34H    basis set group =>   4
---------------------------------
AUXILIARY/J BASIS SET INFORMATION
---------------------------------
There are 4 groups of distinct atoms

 Group   1 Type C   : 12s5p4d2f1g contracted to 6s4p3d1f1g pattern {711111/2111/211/2/1}
 Group   2 Type O   : 12s5p4d2f1g contracted to 6s4p3d1f1g pattern {711111/2111/211/2/1}
 Group   3 Type N   : 12s5p4d2f1g contracted to 6s4p3d1f1g pattern {711111/2111/211/2/1}
 Group   4 Type H   : 5s2p1d contracted to 3s1p1d pattern {311/2/1}

Atom   0C    basis set group =>   1
Atom   1C    basis set group =>   1
Atom   2C    basis set group =>   1
Atom   3C    basis set group =>   1
Atom   4C    basis set group =>   1
Atom   5O    basis set group =>   2
Atom   6C    basis set group =>   1
Atom   7C    basis set group =>   1
Atom   8C    basis set group =>   1
Atom   9C    basis set group =>   1
Atom  10C    basis set group =>   1
Atom  11N    basis set group =>   3
Atom  12C    basis set group =>   1
Atom  13C    basis set group =>   1
Atom  14C    basis set group =>   1
Atom  15C    basis set group =>   1
Atom  16O    basis set group =>   2
Atom  17N    basis set group =>   3
Atom  18C    basis set group =>   1
Atom  19C    basis set group =>   1
Atom  20H    basis set group =>   4
Atom  21H    basis set group =>   4
Atom  22H    basis set group =>   4
Atom  23H    basis set group =>   4
Atom  24H    basis set group =>   4
Atom  25H    basis set group =>   4
Atom  26H    basis set group =>   4
Atom  27H    basis set group =>   4
Atom  28H    basis set group =>   4
Atom  29H    basis set group =>   4
Atom  30H    basis set group =>   4
Atom  31H    basis set group =>   4
Atom  32H    basis set group =>   4
Atom  33H    basis set group =>   4
Atom  34H    basis set group =>   4
---------------------------------
AUXILIARY/C BASIS SET INFORMATION
---------------------------------
There are 4 groups of distinct atoms

 Group   1 Type C   : 8s6p5d3f1g contracted to 8s6p4d3f1g pattern {11111111/111111/2111/111/1}
 Group   2 Type O   : 8s6p5d3f1g contracted to 8s6p4d3f1g pattern {11111111/111111/2111/111/1}
 Group   3 Type N   : 8s6p5d3f1g contracted to 8s6p4d3f1g pattern {11111111/111111/2111/111/1}
 Group   4 Type H   : 4s3p2d contracted to 4s2p1d pattern {1111/21/2}

Atom   0C    basis set group =>   1
Atom   1C    basis set group =>   1
Atom   2C    basis set group =>   1
Atom   3C    basis set group =>   1
Atom   4C    basis set group =>   1
Atom   5O    basis set group =>   2
Atom   6C    basis set group =>   1
Atom   7C    basis set group =>   1
Atom   8C    basis set group =>   1
Atom   9C    basis set group =>   1
Atom  10C    basis set group =>   1
Atom  11N    basis set group =>   3
Atom  12C    basis set group =>   1
Atom  13C    basis set group =>   1
Atom  14C    basis set group =>   1
Atom  15C    basis set group =>   1
Atom  16O    basis set group =>   2
Atom  17N    basis set group =>   3
Atom  18C    basis set group =>   1
Atom  19C    basis set group =>   1
Atom  20H    basis set group =>   4
Atom  21H    basis set group =>   4
Atom  22H    basis set group =>   4
Atom  23H    basis set group =>   4
Atom  24H    basis set group =>   4
Atom  25H    basis set group =>   4
Atom  26H    basis set group =>   4
Atom  27H    basis set group =>   4
Atom  28H    basis set group =>   4
Atom  29H    basis set group =>   4
Atom  30H    basis set group =>   4
Atom  31H    basis set group =>   4
Atom  32H    basis set group =>   4
Atom  33H    basis set group =>   4
Atom  34H    basis set group =>   4
------------------------------------------------------------------------------
                             ORCA STARTUP CALCULATIONS
                           -- RI-GTO INTEGRALS CHOSEN --
------------------------------------------------------------------------------
------------------------------------------------------------------------------
                   ___                                                        
                  /   \      - P O W E R E D   B Y -                         
                 /     \                                                     
                 |  |  |   _    _      __       _____    __    __             
                 |  |  |  | |  | |    /  \     |  _  \  |  |  /  |          
                  \  \/   | |  | |   /    \    | | | |  |  | /  /          
                 / \  \   | |__| |  /  /\  \   | |_| |  |  |/  /          
                |  |  |   |  __  | /  /__\  \  |    /   |      \           
                |  |  |   | |  | | |   __   |  |    \   |  |\   \          
                \     /   | |  | | |  |  |  |  | |\  \  |  | \   \       
                 \___/    |_|  |_| |__|  |__|  |_| \__\ |__|  \__/        
                                                                              
                      - O R C A' S   B I G   F R I E N D -                    
                                      &                                       
                       - I N T E G R A L  F E E D E R -                       
                                                                              
 v1 FN, 2020, v2 2021, v3 2022-2024                                           
------------------------------------------------------------------------------


----------------------
SHARK INTEGRAL PACKAGE
----------------------

Number of atoms                             ...     35
Number of basis functions                   ...    570
Number of shells                            ...    260
Maximum angular momentum                    ...      2
Integral batch strategy                     ... SHARK/LIBINT Hybrid
RI-J (if used) integral strategy            ... SPLIT-RIJ (Revised 2003 algorithm where possible)
Printlevel                                  ...      1
Contraction scheme used                     ... SEGMENTED contraction
Prescreening option                         ... SCHWARTZ
   Thresh                                   ... 2.500e-11
   Tcut                                     ... 2.500e-12
   Tpresel                                  ... 2.500e-12 
Coulomb Range Separation                    ... NOT USED
Exchange Range Separation                   ... NOT USED
Multipole approximations                    ... NOT USED
Finite Nucleus Model                        ... NOT USED
CABS basis                                  ... NOT available
Auxiliary Coulomb fitting basis             ... AVAILABLE
   # of basis functions in Aux-J            ...   1145
   # of shells in Aux-J                     ...    375
   Maximum angular momentum in Aux-J        ...      4
Auxiliary J/K fitting basis                 ... NOT available
Auxiliary Correlation fitting basis         ... AVAILABLE
   # of basis functions in Aux-C            ...   1745
   # of shells in Aux-C                     ...    545
   Maximum angular momentum in Aux-C        ...      4
Auxiliary 'external' fitting basis          ... NOT available

Checking pre-screening integrals            ... done (  0.0 sec) Dimension = 260
Check shell pair data                       ... done (  0.0 sec)
Shell pair information
Shell pair cut-off parameter TPreSel        ...   2.5e-12
Total number of shell pairs                 ...     33930
Shell pairs after pre-screening             ...     25289
Total number of primitive shell pairs       ...    111170
Primitive shell pairs kept                  ...     55021
          la=0 lb=0:   7470 shell pairs
          la=1 lb=0:   8326 shell pairs
          la=1 lb=1:   2327 shell pairs
          la=2 lb=0:   4206 shell pairs
          la=2 lb=1:   2345 shell pairs
          la=2 lb=2:    615 shell pairs

Calculating one electron integrals          ... done (  0.1 sec)
Calculating RI/J V-Matrix + Cholesky decomp.... done (  0.2 sec)
Calculating RI/C V-Matrix + Cholesky decomp.... done (  0.5 sec)
Calculating Nuclear repulsion               ... done (  0.0 sec) ENN=   1507.269614119677 Eh

Diagonalization of the overlap matrix:
Smallest eigenvalue                        ... 3.486e-06
Time for diagonalization                   ...    0.029 sec
Threshold for overlap eigenvalues          ... 1.000e-07
Number of eigenvalues below threshold      ... 0
Time for construction of square roots      ...    0.041 sec
Total time needed                          ...    0.080 sec

-------------------
DFT GRID GENERATION
-------------------

General Integration Accuracy     IntAcc      ... 4.388
Radial Grid Type                 RadialGrid  ... OptM3 with GC (2021)
Angular Grid (max. ang.)         AngularGrid ... 4 (Lebedev-302)
Angular grid pruning method      GridPruning ... 4 (adaptive)
Weight generation scheme         WeightScheme... mBecke (2022)
Basis function cutoff            BFCut       ... 1.0000e-11
Integration weight cutoff        WCut        ... 1.0000e-14
Partially contracted basis set               ... off
Rotationally invariant grid construction     ... off
Angular grids for H and He will be reduced by one unit

Total number of grid points                  ...   167562
Total number of batches                      ...     2638
Average number of points per batch           ...       63
Average number of grid points per atom       ...     4787

--------------------
COSX GRID GENERATION
--------------------

GRIDX 1
-------
General Integration Accuracy     IntAcc      ... 3.816
Radial Grid Type                 RadialGrid  ... OptM3 with GC (2021)
Angular Grid (max. ang.)         AngularGrid ... 1 (Lebedev-50)
Angular grid pruning method      GridPruning ... 4 (adaptive)
Weight generation scheme         WeightScheme... mBecke (2022)
Basis function cutoff            BFCut       ... 1.0000e-11
Integration weight cutoff        WCut        ... 1.0000e-14
Partially contracted basis set               ... on
Rotationally invariant grid construction     ... off
Angular grids for H and He will be reduced by one unit

Total number of grid points                  ...    21318
Total number of batches                      ...      184
Average number of points per batch           ...      115
Average number of grid points per atom       ...      609
UseSFitting                                  ... on

GRIDX 2
-------
General Integration Accuracy     IntAcc      ... 4.020
Radial Grid Type                 RadialGrid  ... OptM3 with GC (2021)
Angular Grid (max. ang.)         AngularGrid ... 2 (Lebedev-110)
Angular grid pruning method      GridPruning ... 4 (adaptive)
Weight generation scheme         WeightScheme... mBecke (2022)
Basis function cutoff            BFCut       ... 1.0000e-11
Integration weight cutoff        WCut        ... 1.0000e-14
Partially contracted basis set               ... on
Rotationally invariant grid construction     ... off
Angular grids for H and He will be reduced by one unit

Total number of grid points                  ...    46387
Total number of batches                      ...      376
Average number of points per batch           ...      123
Average number of grid points per atom       ...     1325
UseSFitting                                  ... on

GRIDX 3
-------
General Integration Accuracy     IntAcc      ... 4.338
Radial Grid Type                 RadialGrid  ... OptM3 with GC (2021)
Angular Grid (max. ang.)         AngularGrid ... 3 (Lebedev-194)
Angular grid pruning method      GridPruning ... 4 (adaptive)
Weight generation scheme         WeightScheme... mBecke (2022)
Basis function cutoff            BFCut       ... 1.0000e-11
Integration weight cutoff        WCut        ... 1.0000e-14
Partially contracted basis set               ... on
Rotationally invariant grid construction     ... off
Angular grids for H and He will be reduced by one unit

Total number of grid points                  ...   101600
Total number of batches                      ...      811
Average number of points per batch           ...      125
Average number of grid points per atom       ...     2903
UseSFitting                                  ... on
Initializing property integral containers    ... done (  0.0 sec)

SHARK setup successfully completed in   6.7 seconds

Maximum memory used throughout the entire STARTUP-calculation: 107.5 MB
-------------------------------------------------------------------------------
                                 ORCA GUESS
                   Start orbitals & Density for SCF / CASSCF
-------------------------------------------------------------------------------

------------
SCF SETTINGS
------------
Hamiltonian:
 Density Functional     Method          .... DFT(GTOs)
 Exchange Functional    Exchange        .... B88
   X-Alpha parameter    XAlpha          ....  0.666667
   Becke's b parameter  XBeta           ....  0.004200
 Correlation Functional Correlation     .... LYP
 LDA part of GGA corr.  LDAOpt          .... VWN-5
 Gradients option       PostSCFGGA      .... off
 Hybrid DFT is turned on
   Fraction HF Exchange ScalHFX         ....  0.200000
   Scaling of DF-GGA-X  ScalDFX         ....  0.720000
   Scaling of DF-GGA-C  ScalDFC         ....  0.810000
   Scaling of DF-LDA-C  ScalLDAC        ....  1.000000
   Perturbative correction              ....  0.000000
   NL short-range parameter             ....  4.800000
 RI-approximation to the Coulomb term is turned on
   Number of AuxJ basis functions       .... 1145
   RIJ-COSX (HFX calculated with COS-X)).... on


General Settings:
 Integral files         IntName         .... HBQ-H
 Hartree-Fock type      HFTyp           .... RHF
 Total Charge           Charge          ....    1
 Multiplicity           Mult            ....    1
 Number of Electrons    NEL             ....  140
 Basis Dimension        Dim             ....  570
 Nuclear Repulsion      ENuc            ....   1507.2696141197 Eh

Convergence Acceleration:
 AO-DIIS                CNVDIIS         .... on
   Start iteration      DIISMaxIt       ....    12
   Startup error        DIISStart       ....  0.200000
   # of expansion vecs  DIISMaxEq       ....     5
   Bias factor          DIISBfac        ....   1.050
   Max. coefficient     DIISMaxC        ....  10.000
 MO-DIIS                CNVKDIIS        .... off
 Trust-Rad. Augm. Hess. CNVTRAH         .... auto
   Auto Start mean grad. ratio tolernc. ....  1.125000
   Auto Start start iteration           ....     1
   Auto Start num. interpolation iter.  ....    10
   Max. Number of Micro iterations      ....    24
   Max. Number of Macro iterations      .... Maxiter - #DIIS iter
   Number of Davidson start vectors     ....     2
   Converg. threshold    (grad. norm)   ....   1.000e-05
   Grad. Scal. Fac. for Micro threshold ....   0.100
   Minimum threshold for Micro iter.    ....   1.000e-02
   NR start threshold (gradient norm)   ....   1.000e-04
   Initial trust radius                 ....   0.400
   Minimum AH scaling param. (alpha)    ....   1.000
   Maximum AH scaling param. (alpha)    .... 1000.000
   Quad. conv. algorithm                .... NR
   White noise on init. David. guess    .... on
   Maximum white noise                  ....   0.010
   Pseudo random numbers                .... off
   Inactive MOs                         .... canonical
   Orbital update algorithm             .... Taylor
   Preconditioner                       .... Diag
   Full preconditioner red. dimension   ....   250
 SOSCF                  CNVSOSCF        .... on
   Start iteration      SOSCFMaxIt      ....   150
   Startup grad/error   SOSCFStart      ....  0.003300
   Hessian update       SOSCFHessUp     .... L-BFGS
 Level Shifting         CNVShift        .... on
   Level shift para.    LevelShift      ....    0.2500
   Turn off err/grad.   ShiftErr        ....    0.0010
 Zerner damping         CNVZerner       .... off
 Static damping         CNVDamp         .... on
   Fraction old density DampFac         ....    0.7000
   Max. Damping (<1)    DampMax         ....    0.9800
   Min. Damping (>=0)   DampMin         ....    0.0000
   Turn off err/grad.   DampErr         ....    0.1000

SCF Procedure:
 Maximum # iterations   MaxIter         ....   125
 SCF integral mode      SCFMode         .... Direct
   Integral package                     .... SHARK and LIBINT hybrid scheme
 Reset frequency        DirectResetFreq ....    20
 Integral Threshold     Thresh          ....  2.500e-11 Eh
 Primitive CutOff       TCut            ....  2.500e-12 Eh

Convergence Tolerance:
 Convergence Check Mode ConvCheckMode   .... Total+1el-Energy
 Convergence forced     ConvForced      .... 1
 Energy Change          TolE            ....  1.000e-08 Eh
 1-El. energy change                    ....  1.000e-05 Eh
 Orbital Gradient       TolG            ....  1.000e-05
 Orbital Rotation angle TolX            ....  1.000e-05
 DIIS Error             TolErr          ....  5.000e-07

---------------------
INITIAL GUESS: MOREAD
---------------------
Guess MOs are being read from file: HBQ-H.gbw
Input Geometry matches current geometry (good)
Input basis set matches current basis set (good)
Occupation numbers will be reassigned to an Aufbau configuration
MOs were renormalized
MOs were reorthogonalized (Cholesky)
                      ------------------
                      INITIAL GUESS DONE (   0.2 sec)
                      ------------------
             **** ENERGY FILE WAS UPDATED (HBQ-H.en.tmp) ****
Finished Guess after   0.8 sec
Maximum memory used throughout the entire GUESS-calculation: 68.9 MB

-------------------------------------------------------------------------------------------
                                      ORCA LEAN-SCF
                              memory conserving SCF solver
-------------------------------------------------------------------------------------------

--------------------
CPCM SOLVATION MODEL
--------------------
CPCM parameters:
  Epsilon                                         ...      80.1510
  Refrac                                          ...       1.3328
  Rsolv                                           ...       1.3000
  Surface type                                    ... GAUSSIAN VDW
  Discretization scheme                           ... Constant charge density
    Threshold for H atoms                         ...       5.0000 (charges/Ang^2)
    Threshold for non-H atoms                     ...       5.0000 (charges/Ang^2)
  Epsilon function type                           ...         CPCM
Solvent:                                          ... WATER
Radii:
  Scheme                                          ... Element-dependent radii
  Radius for C  used is    3.8550 Bohr (=   2.0400 Ang.)
  Radius for O  used is    3.4469 Bohr (=   1.8240 Ang.)
  Radius for N  used is    3.5149 Bohr (=   1.8600 Ang.)
  Radius for H  used is    2.4944 Bohr (=   1.3200 Ang.)
Calculating surface                               ...        done! (  0.0s)
Cavity surface points                             ...         3055
Cavity Volume                                     ...    2130.3027
Cavity Surface-area                               ...    1085.5674
Calculating surface distance matrix               ...        done! (  0.0s)
Performing Cholesky decomposition & store         ...        done! (  1.0s)
Overall time for CPCM initialization              ...                 1.0s

----------------------------------------D-I-I-S--------------------------------------------
Iteration    Energy (Eh)           Delta-E    RMSDP     MaxDP     DIISErr   Damp  Time(sec)
-------------------------------------------------------------------------------------------
               ***  Starting incremental Fock matrix formation  ***
                              *** Initializing SOSCF ***
---------------------------------------S-O-S-C-F--------------------------------------
Iteration    Energy (Eh)           Delta-E    RMSDP     MaxDP     MaxGrad    Time(sec)
--------------------------------------------------------------------------------------
    1    -878.3703865651571050     0.00e+00  1.70e-05  1.26e-03  2.17e-05    43.1
               *** Restarting incremental Fock matrix formation ***
    2    -878.3703877920436298    -1.23e-06  3.96e-06  2.49e-04  2.86e-05    41.8
    3    -878.3703879109214085    -1.19e-07  3.52e-06  3.37e-04  8.39e-06    21.8
    4    -878.3703878953058393     1.56e-08  1.61e-06  1.51e-04  1.61e-05    18.8
    5    -878.3703879106999466    -1.54e-08  4.16e-06  5.70e-04  2.56e-06    17.2
    6    -878.3703879096267428     1.07e-09  5.71e-06  5.83e-04  4.01e-06    15.8
                 **** Energy Check signals convergence ****

               *****************************************************
               *                     SUCCESS                       *
               *           SCF CONVERGED AFTER   6 CYCLES          *
               *****************************************************

Recomputing exchange energy using gridx3       ... done (   58.476 sec)
Old exchange energy                            :    -23.567409866 Eh
New exchange energy                            :    -23.567388703 Eh
Exchange energy change after final integration :      0.000021163 Eh
Total energy after final integration           :   -878.370366746 Eh
             **** ENERGY FILE WAS UPDATED (HBQ-H.en.tmp) ****

----------------
TOTAL SCF ENERGY
----------------

Total Energy       :       -878.37036674629803 Eh          -23901.67282 eV

Components:
Nuclear Repulsion  :       1507.26961411967682 Eh           41014.89136 eV
Electronic Energy  :      -2385.55294987260913 Eh          -64914.19594 eV
One Electron Energy:      -4166.20571645802920 Eh         -113368.22107 eV
Two Electron Energy:       1780.65276658541984 Eh           48454.02513 eV
CPCM Dielectric    :         -0.08705215669437 Eh              -2.36881 eV

Virial components:
Potential Energy   :      -1752.80806032723058 Eh          -47696.33216 eV
Kinetic Energy     :        874.43769358093266 Eh           23794.65934 eV
Virial Ratio       :          2.00449737379145

DFT components:
N(Alpha)           :       69.999981635754 electrons
N(Beta)            :       69.999981635754 electrons
N(Total)           :      139.999963271507 electrons
E(X)               :      -93.697194111053 Eh       
E(C)               :       -5.639017766535 Eh       
E(XC)              :      -99.336211877588 Eh       

CPCM Solvation Model Properties:
Surface-charge          :         -1.02878889485408
Corrected charge        :         -1.00000000000000
Outlying charge corr.   :          0.00004606581190 Eh               0.00125 eV
Free-energy (cav+disp)  :  This term is not implemented in the current solvation scheme

---------------
SCF CONVERGENCE
---------------

  Last Energy change         ...   -1.0732e-09  Tolerance :   1.0000e-08
  Last MAX-Density change    ...    5.8344e-04  Tolerance :   1.0000e-07
  Last RMS-Density change    ...    5.7120e-06  Tolerance :   5.0000e-09
  Last DIIS Error            ...    3.6296e-04  Tolerance :   5.0000e-07
  Last Orbital Gradient      ...    4.0084e-06  Tolerance :   1.0000e-05
  Last Orbital Rotation      ...    4.7747e-06  Tolerance :   1.0000e-05


----------------
ORBITAL ENERGIES
----------------

  NO   OCC          E(Eh)            E(eV) 
   0   2.0000     -19.196617      -522.3665 
   1   2.0000     -19.116009      -520.1730 
   2   2.0000     -14.423238      -392.4763 
   3   2.0000     -14.368026      -390.9739 
   4   2.0000     -10.335881      -281.2536 
   5   2.0000     -10.273135      -279.5462 
   6   2.0000     -10.267208      -279.3849 
   7   2.0000     -10.263322      -279.2792 
   8   2.0000     -10.231973      -278.4261 
   9   2.0000     -10.225221      -278.2424 
  10   2.0000     -10.220627      -278.1174 
  11   2.0000     -10.212713      -277.9020 
  12   2.0000     -10.211283      -277.8631 
  13   2.0000     -10.203025      -277.6384 
  14   2.0000     -10.200907      -277.5808 
  15   2.0000     -10.197149      -277.4785 
  16   2.0000     -10.196446      -277.4594 
  17   2.0000     -10.192221      -277.3444 
  18   2.0000     -10.190998      -277.3112 
  19   2.0000     -10.188417      -277.2409 
  20   2.0000      -1.134432       -30.8695 
  21   2.0000      -1.047201       -28.4958 
  22   2.0000      -1.020598       -27.7719 
  23   2.0000      -0.963751       -26.2250 
  24   2.0000      -0.902588       -24.5607 
  25   2.0000      -0.864319       -23.5193 
  26   2.0000      -0.838891       -22.8274 
  27   2.0000      -0.806050       -21.9337 
  28   2.0000      -0.779093       -21.2002 
  29   2.0000      -0.756798       -20.5935 
  30   2.0000      -0.729449       -19.8493 
  31   2.0000      -0.723272       -19.6812 
  32   2.0000      -0.696863       -18.9626 
  33   2.0000      -0.678603       -18.4657 
  34   2.0000      -0.662990       -18.0409 
  35   2.0000      -0.648093       -17.6355 
  36   2.0000      -0.603114       -16.4116 
  37   2.0000      -0.589434       -16.0393 
  38   2.0000      -0.553831       -15.0705 
  39   2.0000      -0.550644       -14.9838 
  40   2.0000      -0.545216       -14.8361 
  41   2.0000      -0.536797       -14.6070 
  42   2.0000      -0.507901       -13.8207 
  43   2.0000      -0.505060       -13.7434 
  44   2.0000      -0.500953       -13.6316 
  45   2.0000      -0.490473       -13.3465 
  46   2.0000      -0.483733       -13.1630 
  47   2.0000      -0.470253       -12.7962 
  48   2.0000      -0.466177       -12.6853 
  49   2.0000      -0.455335       -12.3903 
  50   2.0000      -0.450375       -12.2553 
  51   2.0000      -0.442696       -12.0464 
  52   2.0000      -0.428732       -11.6664 
  53   2.0000      -0.423366       -11.5204 
  54   2.0000      -0.413124       -11.2417 
  55   2.0000      -0.413073       -11.2403 
  56   2.0000      -0.406501       -11.0615 
  57   2.0000      -0.402477       -10.9520 
  58   2.0000      -0.394449       -10.7335 
  59   2.0000      -0.388585       -10.5739 
  60   2.0000      -0.380837       -10.3631 
  61   2.0000      -0.375854       -10.2275 
  62   2.0000      -0.360172        -9.8008 
  63   2.0000      -0.344894        -9.3850 
  64   2.0000      -0.334098        -9.0913 
  65   2.0000      -0.304982        -8.2990 
  66   2.0000      -0.297409        -8.0929 
  67   2.0000      -0.271708        -7.3936 
  68   2.0000      -0.263783        -7.1779 
  69   2.0000      -0.233515        -6.3543 
  70   0.0000      -0.107959        -2.9377 
  71   0.0000      -0.073489        -1.9997 
  72   0.0000      -0.037631        -1.0240 
  73   0.0000      -0.007324        -0.1993 
  74   0.0000       0.022416         0.6100 
  75   0.0000       0.027941         0.7603 
  76   0.0000       0.039413         1.0725 
  77   0.0000       0.054031         1.4702 
  78   0.0000       0.058292         1.5862 
  79   0.0000       0.068365         1.8603 
  80   0.0000       0.073559         2.0017 
*Only the first 10 virtual orbitals were printed.

                    ********************************
                    * MULLIKEN POPULATION ANALYSIS *
                    ********************************

-----------------------
MULLIKEN ATOMIC CHARGES
-----------------------
   0 C :   -0.121314
   1 C :   -0.089055
   2 C :   -0.189316
   3 C :    0.206079
   4 C :    0.275373
   5 O :   -0.539777
   6 C :    0.223085
   7 C :   -0.196746
   8 C :   -0.263676
   9 C :   -0.063068
  10 C :    0.415120
  11 N :   -0.178275
  12 C :    0.104520
  13 C :   -0.032143
  14 C :   -0.147744
  15 C :    0.669220
  16 O :   -0.588057
  17 N :   -0.202847
  18 C :   -0.249731
  19 C :   -0.270798
  20 H :    0.160331
  21 H :    0.151612
  22 H :    0.146420
  23 H :    0.150665
  24 H :    0.143248
  25 H :    0.146401
  26 H :    0.120427
  27 H :    0.121384
  28 H :    0.122557
  29 H :    0.121297
  30 H :    0.118970
  31 H :    0.183135
  32 H :    0.149740
  33 H :    0.155861
  34 H :    0.247103
Sum of atomic charges:    1.0000000

--------------------------------
MULLIKEN REDUCED ORBITAL CHARGES
--------------------------------
  0 C s       :     3.217946  s :     3.217946
      pz      :     0.978684  p :     2.824723
      px      :     0.916399
      py      :     0.929640
      dz2     :     0.013230  d :     0.078644
      dxz     :     0.011397
      dyz     :     0.016226
      dx2y2   :     0.017170
      dxy     :     0.020622

  1 C s       :     3.192144  s :     3.192144
      pz      :     0.933283  p :     2.807869
      px      :     0.940359
      py      :     0.934227
      dz2     :     0.015723  d :     0.089042
      dxz     :     0.017722
      dyz     :     0.010551
      dx2y2   :     0.020775
      dxy     :     0.024270

  2 C s       :     3.226636  s :     3.226636
      pz      :     0.970037  p :     2.879994
      px      :     0.952732
      py      :     0.957226
      dz2     :     0.008300  d :     0.082686
      dxz     :     0.021119
      dyz     :     0.008133
      dx2y2   :     0.019380
      dxy     :     0.025753

  3 C s       :     3.202159  s :     3.202159
      pz      :     0.792116  p :     2.406249
      px      :     0.868059
      py      :     0.746073
      dz2     :     0.033904  d :     0.185513
      dxz     :     0.041593
      dyz     :     0.015153
      dx2y2   :     0.050609
      dxy     :     0.044255

  4 C s       :     3.360551  s :     3.360551
      pz      :     0.952423  p :     2.233807
      px      :     0.563580
      py      :     0.717804
      dz2     :     0.020546  d :     0.130269
      dxz     :     0.024567
      dyz     :     0.018841
      dx2y2   :     0.036375
      dxy     :     0.029939

  5 O s       :     3.859795  s :     3.859795
      pz      :     1.642089  p :     4.637043
      px      :     1.462208
      py      :     1.532745
      dz2     :     0.008394  d :     0.042940
      dxz     :     0.006128
      dyz     :     0.009474
      dx2y2   :     0.011167
      dxy     :     0.007777

  6 C s       :     3.026658  s :     3.026658
      pz      :     0.876898  p :     2.596326
      px      :     0.880061
      py      :     0.839367
      dz2     :     0.022644  d :     0.153931
      dxz     :     0.029690
      dyz     :     0.022125
      dx2y2   :     0.039644
      dxy     :     0.039827

  7 C s       :     3.258732  s :     3.258732
      pz      :     0.931948  p :     2.848352
      px      :     0.985113
      py      :     0.931291
      dz2     :     0.008642  d :     0.089663
      dxz     :     0.021509
      dyz     :     0.010697
      dx2y2   :     0.029192
      dxy     :     0.019623

  8 C s       :     3.314931  s :     3.314931
      pz      :     0.966132  p :     2.864022
      px      :     0.932906
      py      :     0.964983
      dz2     :     0.014620  d :     0.084723
      dxz     :     0.009650
      dyz     :     0.017957
      dx2y2   :     0.026988
      dxy     :     0.015508

  9 C s       :     3.078832  s :     3.078832
      pz      :     0.900264  p :     2.814186
      px      :     1.080917
      py      :     0.833005
      dz2     :     0.027056  d :     0.170050
      dxz     :     0.033625
      dyz     :     0.019344
      dx2y2   :     0.052250
      dxy     :     0.037775

 10 C s       :     2.960734  s :     2.960734
      pz      :     0.863298  p :     2.475697
      px      :     0.830500
      py      :     0.781899
      dz2     :     0.023960  d :     0.148450
      dxz     :     0.024983
      dyz     :     0.022162
      dx2y2   :     0.043050
      dxy     :     0.034295

 11 N s       :     3.439357  s :     3.439357
      pz      :     1.331472  p :     3.666523
      px      :     1.102585
      py      :     1.232466
      dz2     :     0.011603  d :     0.072395
      dxz     :     0.009263
      dyz     :     0.014964
      dx2y2   :     0.019578
      dxy     :     0.016986

 12 C s       :     3.144195  s :     3.144195
      pz      :     0.902856  p :     2.649421
      px      :     0.865992
      py      :     0.880573
      dz2     :     0.009180  d :     0.101864
      dxz     :     0.027754
      dyz     :     0.009961
      dx2y2   :     0.028823
      dxy     :     0.026146

 13 C s       :     3.137994  s :     3.137994
      pz      :     0.946609  p :     2.816824
      px      :     0.923439
      py      :     0.946777
      dz2     :     0.011950  d :     0.077325
      dxz     :     0.016170
      dyz     :     0.010381
      dx2y2   :     0.017901
      dxy     :     0.020923

 14 C s       :     3.242063  s :     3.242063
      pz      :     0.879621  p :     2.821650
      px      :     1.007955
      py      :     0.934074
      dz2     :     0.013811  d :     0.084031
      dxz     :     0.013249
      dyz     :     0.015108
      dx2y2   :     0.021306
      dxy     :     0.020557

 15 C s       :     2.817724  s :     2.817724
      pz      :     0.721635  p :     2.216275
      px      :     0.691135
      py      :     0.803506
      dz2     :     0.077560  d :     0.296782
      dxz     :     0.075386
      dyz     :     0.076274
      dx2y2   :     0.038371
      dxy     :     0.029190

 16 O s       :     3.879175  s :     3.879175
      pz      :     1.446883  p :     4.674844
      px      :     1.643942
      py      :     1.584019
      dz2     :     0.011152  d :     0.034038
      dxz     :     0.009563
      dyz     :     0.009258
      dx2y2   :     0.001755
      dxy     :     0.002311

 17 N s       :     3.438411  s :     3.438411
      pz      :     1.106900  p :     3.672467
      px      :     1.184652
      py      :     1.380915
      dz2     :     0.022913  d :     0.091968
      dxz     :     0.024736
      dyz     :     0.018518
      dx2y2   :     0.013715
      dxy     :     0.012087

 18 C s       :     3.249530  s :     3.249530
      pz      :     1.106259  p :     2.937571
      px      :     0.842306
      py      :     0.989007
      dz2     :     0.008369  d :     0.062630
      dxz     :     0.011456
      dyz     :     0.005973
      dx2y2   :     0.024442
      dxy     :     0.012390

 19 C s       :     3.253546  s :     3.253546
      pz      :     0.820070  p :     2.952647
      px      :     1.032750
      py      :     1.099828
      dz2     :     0.015230  d :     0.064605
      dxz     :     0.016155
      dyz     :     0.017826
      dx2y2   :     0.005411
      dxy     :     0.009983

 20 H s       :     0.815173  s :     0.815173
      pz      :     0.003672  p :     0.024496
      px      :     0.010629
      py      :     0.010195

 21 H s       :     0.825323  s :     0.825323
      pz      :     0.009479  p :     0.023065
      px      :     0.008607
      py      :     0.004980

 22 H s       :     0.830621  s :     0.830621
      pz      :     0.003765  p :     0.022959
      px      :     0.006178
      py      :     0.013016

 23 H s       :     0.824764  s :     0.824764
      pz      :     0.014820  p :     0.024571
      px      :     0.005478
      py      :     0.004272

 24 H s       :     0.833830  s :     0.833830
      pz      :     0.005266  p :     0.022922
      px      :     0.003467
      py      :     0.014189

 25 H s       :     0.830645  s :     0.830645
      pz      :     0.008500  p :     0.022954
      px      :     0.009106
      py      :     0.005347

 26 H s       :     0.853101  s :     0.853101
      pz      :     0.009157  p :     0.026472
      px      :     0.004950
      py      :     0.012366

 27 H s       :     0.851636  s :     0.851636
      pz      :     0.006069  p :     0.026980
      px      :     0.016910
      py      :     0.004001

 28 H s       :     0.851296  s :     0.851296
      pz      :     0.005468  p :     0.026147
      px      :     0.009554
      py      :     0.011125

 29 H s       :     0.852263  s :     0.852263
      pz      :     0.009097  p :     0.026440
      px      :     0.004547
      py      :     0.012797

 30 H s       :     0.854523  s :     0.854523
      pz      :     0.005977  p :     0.026508
      px      :     0.016542
      py      :     0.003989

 31 H s       :     0.790922  s :     0.790922
      pz      :     0.008936  p :     0.025942
      px      :     0.004356
      py      :     0.012650

 32 H s       :     0.823540  s :     0.823540
      pz      :     0.005616  p :     0.026719
      px      :     0.009870
      py      :     0.011233

 33 H s       :     0.817642  s :     0.817642
      pz      :     0.005508  p :     0.026496
      px      :     0.017133
      py      :     0.003855

 34 H s       :     0.702184  s :     0.702184
      pz      :     0.011396  p :     0.050713
      px      :     0.031656
      py      :     0.007661



                     *******************************
                     * LOEWDIN POPULATION ANALYSIS *
                     *******************************

----------------------
LOEWDIN ATOMIC CHARGES
----------------------
   0 C :   -0.083921
   1 C :   -0.107026
   2 C :   -0.079034
   3 C :   -0.119706
   4 C :   -0.030464
   5 O :    0.167585
   6 C :   -0.072285
   7 C :   -0.063319
   8 C :   -0.069406
   9 C :   -0.013234
  10 C :   -0.078033
  11 N :    0.220531
  12 C :   -0.032630
  13 C :   -0.098353
  14 C :    0.015660
  15 C :   -0.333740
  16 O :   -0.061086
  17 N :    0.093310
  18 C :   -0.204424
  19 C :   -0.210432
  20 H :    0.120790
  21 H :    0.119668
  22 H :    0.116283
  23 H :    0.121140
  24 H :    0.117665
  25 H :    0.117418
  26 H :    0.148049
  27 H :    0.151077
  28 H :    0.148664
  29 H :    0.154082
  30 H :    0.152789
  31 H :    0.161511
  32 H :    0.160306
  33 H :    0.161526
  34 H :    0.209036

-------------------------------
LOEWDIN REDUCED ORBITAL CHARGES
-------------------------------
  0 C s       :     2.775286  s :     2.775286
      pz      :     0.953379  p :     2.957431
      px      :     0.996974
      py      :     1.007078
      dz2     :     0.047387  d :     0.351204
      dxz     :     0.053069
      dyz     :     0.060919
      dx2y2   :     0.104714
      dxy     :     0.085116

  1 C s       :     2.777110  s :     2.777110
      pz      :     0.922783  p :     2.949840
      px      :     1.043819
      py      :     0.983238
      dz2     :     0.055474  d :     0.380075
      dxz     :     0.075657
      dyz     :     0.041305
      dx2y2   :     0.079460
      dxy     :     0.128178

  2 C s       :     2.773343  s :     2.773343
      pz      :     0.934404  p :     2.949030
      px      :     1.044275
      py      :     0.970351
      dz2     :     0.028849  d :     0.356661
      dxz     :     0.075927
      dyz     :     0.042783
      dx2y2   :     0.098647
      dxy     :     0.110455

  3 C s       :     2.721037  s :     2.721037
      pz      :     0.863262  p :     2.758056
      px      :     1.014343
      py      :     0.880451
      dz2     :     0.098395  d :     0.640614
      dxz     :     0.116244
      dyz     :     0.112385
      dx2y2   :     0.169267
      dxy     :     0.144322

  4 C s       :     2.698938  s :     2.698938
      pz      :     0.930218  p :     2.870420
      px      :     0.978633
      py      :     0.961570
      dz2     :     0.060690  d :     0.461106
      dxz     :     0.089090
      dyz     :     0.060873
      dx2y2   :     0.124844
      dxy     :     0.125609

  5 O s       :     3.273488  s :     3.273488
      pz      :     1.574967  p :     4.458177
      px      :     1.411768
      py      :     1.471442
      dz2     :     0.018795  d :     0.100750
      dxz     :     0.014851
      dyz     :     0.018046
      dx2y2   :     0.025291
      dxy     :     0.023768

  6 C s       :     2.707374  s :     2.707374
      pz      :     0.889501  p :     2.860721
      px      :     1.012281
      py      :     0.958939
      dz2     :     0.068864  d :     0.504190
      dxz     :     0.095374
      dyz     :     0.071689
      dx2y2   :     0.133514
      dxy     :     0.134749

  7 C s       :     2.769448  s :     2.769448
      pz      :     0.908796  p :     2.923998
      px      :     1.034231
      py      :     0.980971
      dz2     :     0.029809  d :     0.369873
      dxz     :     0.076985
      dyz     :     0.048839
      dx2y2   :     0.111585
      dxy     :     0.102655

  8 C s       :     2.770661  s :     2.770661
      pz      :     0.929660  p :     2.939247
      px      :     1.011792
      py      :     0.997794
      dz2     :     0.048850  d :     0.359498
      dxz     :     0.047115
      dyz     :     0.065104
      dx2y2   :     0.120942
      dxy     :     0.077487

  9 C s       :     2.703437  s :     2.703437
      pz      :     0.859161  p :     2.756285
      px      :     1.013426
      py      :     0.883698
      dz2     :     0.078642  d :     0.553512
      dxz     :     0.098058
      dyz     :     0.092124
      dx2y2   :     0.145270
      dxy     :     0.139418

 10 C s       :     2.706699  s :     2.706699
      pz      :     0.904135  p :     2.878868
      px      :     1.000827
      py      :     0.973905
      dz2     :     0.071574  d :     0.492467
      dxz     :     0.085125
      dyz     :     0.068874
      dx2y2   :     0.135823
      dxy     :     0.131071

 11 N s       :     2.938174  s :     2.938174
      pz      :     1.239327  p :     3.619796
      px      :     1.176621
      py      :     1.203848
      dz2     :     0.031169  d :     0.221499
      dxz     :     0.029435
      dyz     :     0.040372
      dx2y2   :     0.070602
      dxy     :     0.049920

 12 C s       :     2.788170  s :     2.788170
      pz      :     0.882788  p :     2.812306
      px      :     1.017058
      py      :     0.912461
      dz2     :     0.036899  d :     0.432154
      dxz     :     0.096981
      dyz     :     0.049241
      dx2y2   :     0.112182
      dxy     :     0.136852

 13 C s       :     2.777846  s :     2.777846
      pz      :     0.939089  p :     2.969870
      px      :     1.039207
      py      :     0.991574
      dz2     :     0.042124  d :     0.350636
      dxz     :     0.071193
      dyz     :     0.041952
      dx2y2   :     0.079755
      dxy     :     0.115612

 14 C s       :     2.784356  s :     2.784356
      pz      :     0.865835  p :     2.847911
      px      :     1.004298
      py      :     0.977778
      dz2     :     0.046278  d :     0.352073
      dxz     :     0.051576
      dyz     :     0.062069
      dx2y2   :     0.111109
      dxy     :     0.081041

 15 C s       :     2.722148  s :     2.722148
      pz      :     0.974680  p :     2.613915
      px      :     0.823206
      py      :     0.816029
      dz2     :     0.266489  d :     0.997677
      dxz     :     0.263784
      dyz     :     0.218828
      dx2y2   :     0.137456
      dxy     :     0.111120

 16 O s       :     3.429593  s :     3.429593
      pz      :     1.493979  p :     4.563152
      px      :     1.577013
      py      :     1.492160
      dz2     :     0.024772  d :     0.068342
      dxz     :     0.021673
      dyz     :     0.014792
      dx2y2   :     0.003477
      dxy     :     0.003627

 17 N s       :     2.919940  s :     2.919940
      pz      :     1.178907  p :     3.712722
      px      :     1.223906
      py      :     1.309908
      dz2     :     0.071170  d :     0.274028
      dxz     :     0.073822
      dyz     :     0.054315
      dx2y2   :     0.038571
      dxy     :     0.036152

 18 C s       :     2.835831  s :     2.835831
      pz      :     1.105705  p :     3.072888
      px      :     0.935469
      py      :     1.031714
      dz2     :     0.044128  d :     0.295705
      dxz     :     0.067125
      dyz     :     0.022519
      dx2y2   :     0.097641
      dxy     :     0.064291

 19 C s       :     2.836929  s :     2.836929
      pz      :     0.910864  p :     3.075433
      px      :     1.059539
      py      :     1.105030
      dz2     :     0.076159  d :     0.298070
      dxz     :     0.086309
      dyz     :     0.058606
      dx2y2   :     0.019879
      dxy     :     0.057117

 20 H s       :     0.814798  s :     0.814798
      pz      :     0.010356  p :     0.064413
      px      :     0.027018
      py      :     0.027039

 21 H s       :     0.819550  s :     0.819550
      pz      :     0.022833  p :     0.060782
      px      :     0.023611
      py      :     0.014338

 22 H s       :     0.822865  s :     0.822865
      pz      :     0.010537  p :     0.060852
      px      :     0.016728
      py      :     0.033587

 23 H s       :     0.814860  s :     0.814860
      pz      :     0.038208  p :     0.064000
      px      :     0.013744
      py      :     0.012048

 24 H s       :     0.821602  s :     0.821602
      pz      :     0.015244  p :     0.060733
      px      :     0.010386
      py      :     0.035103

 25 H s       :     0.821857  s :     0.821857
      pz      :     0.022973  p :     0.060724
      px      :     0.022437
      py      :     0.015314

 26 H s       :     0.789875  s :     0.789875
      pz      :     0.021046  p :     0.062076
      px      :     0.013747
      py      :     0.027282

 27 H s       :     0.786131  s :     0.786131
      pz      :     0.015361  p :     0.062792
      px      :     0.035825
      py      :     0.011605

 28 H s       :     0.790115  s :     0.790115
      pz      :     0.013924  p :     0.061222
      px      :     0.022449
      py      :     0.024849

 29 H s       :     0.784386  s :     0.784386
      pz      :     0.020544  p :     0.061532
      px      :     0.013017
      py      :     0.027970

 30 H s       :     0.785395  s :     0.785395
      pz      :     0.014954  p :     0.061816
      px      :     0.035154
      py      :     0.011707

 31 H s       :     0.774703  s :     0.774703
      pz      :     0.021240  p :     0.063785
      px      :     0.012971
      py      :     0.029574

 32 H s       :     0.777277  s :     0.777277
      pz      :     0.014191  p :     0.062417
      px      :     0.022991
      py      :     0.025235

 33 H s       :     0.775713  s :     0.775713
      pz      :     0.013808  p :     0.062760
      px      :     0.037617
      py      :     0.011335

 34 H s       :     0.671889  s :     0.671889
      pz      :     0.027647  p :     0.119075
      px      :     0.071345
      py      :     0.020083



                      *****************************
                      * MAYER POPULATION ANALYSIS *
                      *****************************

  NA   - Mulliken gross atomic population
  ZA   - Total nuclear charge
  QA   - Mulliken gross atomic charge
  VA   - Mayer's total valence
  BVA  - Mayer's bonded valence
  FA   - Mayer's free valence

  ATOM       NA         ZA         QA         VA         BVA        FA
  0 C      6.1213     6.0000    -0.1213     3.8732     3.8732    -0.0000
  1 C      6.0891     6.0000    -0.0891     3.8604     3.8604     0.0000
  2 C      6.1893     6.0000    -0.1893     3.7920     3.7920     0.0000
  3 C      5.7939     6.0000     0.2061     3.7096     3.7096    -0.0000
  4 C      5.7246     6.0000     0.2754     3.4782     3.4782     0.0000
  5 O      8.5398     8.0000    -0.5398     1.9715     1.9715    -0.0000
  6 C      5.7769     6.0000     0.2231     3.8887     3.8887     0.0000
  7 C      6.1967     6.0000    -0.1967     3.7409     3.7409    -0.0000
  8 C      6.2637     6.0000    -0.2637     3.7904     3.7904    -0.0000
  9 C      6.0631     6.0000    -0.0631     3.8044     3.8044     0.0000
 10 C      5.5849     6.0000     0.4151     3.8166     3.8166    -0.0000
 11 N      7.1783     7.0000    -0.1783     3.5475     3.5475    -0.0000
 12 C      5.8955     6.0000     0.1045     3.9309     3.9309    -0.0000
 13 C      6.0321     6.0000    -0.0321     3.8752     3.8752    -0.0000
 14 C      6.1477     6.0000    -0.1477     3.9569     3.9569     0.0000
 15 C      5.3308     6.0000     0.6692     4.2277     4.2277     0.0000
 16 O      8.5881     8.0000    -0.5881     2.0228     2.0228    -0.0000
 17 N      7.2028     7.0000    -0.2028     3.2625     3.2625    -0.0000
 18 C      6.2497     6.0000    -0.2497     3.8241     3.8241     0.0000
 19 C      6.2708     6.0000    -0.2708     3.8328     3.8328    -0.0000
 20 H      0.8397     1.0000     0.1603     0.9668     0.9668     0.0000
 21 H      0.8484     1.0000     0.1516     0.9475     0.9475    -0.0000
 22 H      0.8536     1.0000     0.1464     0.9497     0.9497    -0.0000
 23 H      0.8493     1.0000     0.1507     0.9803     0.9803     0.0000
 24 H      0.8568     1.0000     0.1432     0.9496     0.9496    -0.0000
 25 H      0.8536     1.0000     0.1464     0.9509     0.9509     0.0000
 26 H      0.8796     1.0000     0.1204     0.9719     0.9719     0.0000
 27 H      0.8786     1.0000     0.1214     0.9769     0.9769     0.0000
 28 H      0.8774     1.0000     0.1226     0.9647     0.9647     0.0000
 29 H      0.8787     1.0000     0.1213     0.9743     0.9743    -0.0000
 30 H      0.8810     1.0000     0.1190     0.9740     0.9740    -0.0000
 31 H      0.8169     1.0000     0.1831     0.9580     0.9580    -0.0000
 32 H      0.8503     1.0000     0.1497     0.9620     0.9620    -0.0000
 33 H      0.8441     1.0000     0.1559     0.9648     0.9648    -0.0000
 34 H      0.7529     1.0000     0.2471     0.9444     0.9444     0.0000

  Mayer bond orders larger than 0.100000
B(  0-C ,  1-C ) :   1.2916 B(  0-C ,  3-C ) :   1.4106 B(  0-C , 27-H ) :   0.9814 
B(  1-C ,  2-C ) :   1.4012 B(  1-C , 28-H ) :   0.9918 B(  2-C ,  6-C ) :   1.2584 
B(  2-C , 26-H ) :   0.9933 B(  3-C ,  4-C ) :   1.1957 B(  3-C ,  5-O ) :   0.8927 
B(  4-C ,  6-C ) :   1.2915 B(  4-C ,  9-C ) :   0.9973 B(  5-O , 15-C ) :   0.9267 
B(  6-C ,  7-C ) :   1.1778 B(  7-C ,  8-C ) :   1.4539 B(  7-C , 29-H ) :   1.0089 
B(  8-C , 10-C ) :   1.1417 B(  8-C , 30-H ) :   1.0164 B(  9-C , 10-C ) :   1.3151 
B(  9-C , 11-N ) :   1.2724 B( 10-C , 14-C ) :   1.2937 B( 11-N , 12-C ) :   1.3148 
B( 11-N , 34-H ) :   0.8643 B( 12-C , 13-C ) :   1.4253 B( 12-C , 31-H ) :   0.9388 
B( 13-C , 14-C ) :   1.3959 B( 13-C , 32-H ) :   0.9595 B( 14-C , 33-H ) :   0.9541 
B( 15-C , 16-O ) :   1.8641 B( 15-C , 17-N ) :   1.3821 B( 17-N , 18-C ) :   0.9292 
B( 17-N , 19-C ) :   0.9330 B( 18-C , 23-H ) :   0.9620 B( 18-C , 24-H ) :   0.9581 
B( 18-C , 25-H ) :   0.9616 B( 19-C , 20-H ) :   0.9587 B( 19-C , 21-H ) :   0.9555 
B( 19-C , 22-H ) :   0.9622 

-------
TIMINGS
-------

Total SCF time: 0 days 0 hours 3 min 39 sec 

Total time                  ....     219.150 sec
Sum of individual times     ....     218.543 sec  ( 99.7%)

SCF preparation             ....       1.594 sec  (  0.7%)
Fock matrix formation       ....     215.725 sec  ( 98.4%)
  Startup                   ....       0.113 sec  (  0.1% of F)
  Split-RI-J                ....      12.667 sec  (  5.9% of F)
  Chain of spheres X        ....     171.549 sec  ( 79.5% of F)
  XC integration            ....      13.239 sec  (  6.1% of F)
    Basis function eval.    ....       3.821 sec  ( 28.9% of XC)
    Density eval.           ....       3.888 sec  ( 29.4% of XC)
    XC-Functional eval.     ....       0.278 sec  (  2.1% of XC)
    XC-Potential eval.      ....       3.436 sec  ( 26.0% of XC)
  CPCM terms                ....      17.564 sec  (  8.1% of F)
Diagonalization             ....       0.000 sec  (  0.0%)
Density matrix formation    ....       0.223 sec  (  0.1%)
Total Energy calculation    ....       0.070 sec  (  0.0%)
Population analysis         ....       0.071 sec  (  0.0%)
Orbital Transformation      ....       0.111 sec  (  0.1%)
Orbital Orthonormalization  ....       0.000 sec  (  0.0%)
DIIS solution               ....       0.131 sec  (  0.1%)
SOSCF solution              ....       0.590 sec  (  0.3%)
Finished LeanSCF after 219.3 sec

Maximum memory used throughout the entire LEANSCF-calculation: 132.5 MB

------------------------------------------------------------------------------
                         ORCA PROPERTY INTEGRAL CALCULATIONS
------------------------------------------------------------------------------

GBWName                                   ... HBQ-H.gbw
Number of atoms                           ...     35
Number of basis functions                 ...    570
Max core memory                           ...   1024 MB

Dipole integrals                          ... YES
Quadrupole integrals                      ...  NO
Linear momentum integrals                 ... YES
Angular momentum integrals                ... YES
Higher moments length integrals           ...  NO
Higher moments velocity integrals         ...  NO
Kinetic energy integrals                  ...  NO
GIAO right hand sides                     ...  NO
GIAO dipole derivative integrals          ...  NO
SOC integrals                             ...  NO
EPR diamagnetic integrals (GIAO)          ...  NO
EPR gauge integrals                       ...  NO
Field gradient integrals                  ...  NO (   0 nuclei)
Spin-dipole/Fermi contact integrals       ...  NO (   0 nuclei)
Contact density integrals                 ...  NO (   0 nuclei)
Nucleus-orbit integrals                   ...  NO (   0 nuclei)
Geometric perturbations                   ...  NO (  35 nuclei)

Choice of electric origin   ... Center of mass
Position of electric origin ... ( -2.5776,  2.1448,  0.9764) 
Choice of magnetic origin   ... GIAO
Position of magnetic origin ... (  0.0000,  0.0000,  0.0000) 

Calculating integrals                     ... Electric Dipole (Length)     done (  0.1 sec)
Calculating integrals                     ... Linear Momentum              done (  0.1 sec)
Calculating integrals                     ... Angular Momentum  (ElOri)    done (  0.2 sec)

Property integrals calculated in   0.4 sec

Maximum memory used throughout the entire PROPINT-calculation: 71.3 MB
------------------------------------------------------------------------------
                        ORCA TD-DFT/TDA CALCULATION
------------------------------------------------------------------------------

Input orbitals are from        ... HBQ-H.gbw
CI-vector output               ... HBQ-H.cis
Solver                         ... FN-2001
Tamm-Dancoff approximation     ... operative
CIS-Integral strategy          ... AO-integrals
Integral handling              ... AO integral Direct
Max. core memory used          ... 512 MB
Reference state                ... RHF
Generation of triplets         ... off
Follow IRoot                   ... off
Number of operators            ... 1
Orbital ranges used for CIS calculation:
 Operator 0:  Orbitals  20... 69  to  70...569
XAS localization array:
 Operator 0:  Orbitals  -1... -1

-------------------
XC-INTEGRATION GRID
-------------------

General Integration Accuracy     IntAcc      ... 3.467
Radial Grid Type                 RadialGrid  ... OptM3 with GC (2021)
Angular Grid (max. ang.)         AngularGrid ... 1 (Lebedev-50)
Angular grid pruning method      GridPruning ... 4 (adaptive)
Weight generation scheme         WeightScheme... mBecke (2022)
Basis function cutoff            BFCut       ... 1.0000e-11
Integration weight cutoff        WCut        ... 1.0000e-14
Partially contracted basis set               ... off
Rotationally invariant grid construction     ... off
Angular grids for H and He will be reduced by one unit

Total number of grid points                  ...    24528
Total number of batches                      ...      401
Average number of points per batch           ...       61
Average number of grid points per atom       ...      701

---------------------
COSX-INTEGRATION GRID
---------------------

General Integration Accuracy     IntAcc      ... 3.067
Radial Grid Type                 RadialGrid  ... OptM3 with GC (2021)
Angular Grid (max. ang.)         AngularGrid ... 1 (Lebedev-50)
Angular grid pruning method      GridPruning ... 4 (adaptive)
Weight generation scheme         WeightScheme... mBecke (2022)
Basis function cutoff            BFCut       ... 1.0000e-11
Integration weight cutoff        WCut        ... 1.0000e-14
Partially contracted basis set               ... on
Rotationally invariant grid construction     ... off
Angular grids for H and He will be reduced by one unit

Total number of grid points                  ...    11332
Total number of batches                      ...      112
Average number of points per batch           ...      101
Average number of grid points per atom       ...      324

---------------
TD-DFT XC SETUP
---------------

DFT calculation                         ... on
Name of the grid file                   ... HBQ-H.grid_cis.tmp
RI-approximation                        ... on
Aux-basis dimension                     ... 1745
Exchange functional (TD-DFT)            ... B88
   X-Alpha parameter    XAlpha (TD-DFT) ...  0.666667
   Becke's b parameter  XBeta (TD-DFT)  ...  0.004200
Correlation functional (TD-DFT)         ... LYP
 LDA part of GGA corr.  LDAOpt (TD-DFT) ... VWN-5
Hybrid DFT                              ... on
   Exchange mixing (TD-DFT)             ...  0.200
   GGA exch. scaling (TD-DFT)           ...  0.720
   GGA corr. scaling (TD-DFT)           ...  0.810

Building densities             ... done
Calculating rho(r) on the grid ... done
Building xc-kernel on the grid ... done
                    *** TD-DFT CALCULATION INITIALIZED ***

-----------------------------
    LR-CPCM (equilibrium)
-----------------------------

Setting up LR-CPCM             ... done

------------------------
DAVIDSON-DIAGONALIZATION
------------------------

Dimension of the eigenvalue problem            ...  25000
Number of roots to be determined               ...      1
Maximum size of the expansion space            ...     10
Maximum number of iterations                   ...    100
Convergence tolerance for the residual         ...    2.500e-07
Convergence tolerance for the energies         ...    2.500e-07
Orthogonality tolerance                        ...    1.000e-14
Level Shift                                    ...    0.000e+00
Constructing the preconditioner                ... o.k.
Building the initial guess                     ... o.k.
Number of trial vectors determined             ...     10


                       ****Iteration    0****
   Time for iteration     :  TOTAL=21.6 TRAFO=0.0 RIJ=3.5 COSX=8.2 XC=1.5
   Size of expansion space: 3
   Lowest Energy          :     0.117876814991
   Maximum Energy change  :     0.117876814991 (vector 0)
   Maximum residual norm  :     0.010510338009

                       ****Iteration    1****
   Time for iteration     :  TOTAL=16.4 TRAFO=0.0 RIJ=2.5 COSX=6.8 XC=0.5
   Size of expansion space: 4
   Lowest Energy          :     0.107228628773
   Maximum Energy change  :     0.010648186218 (vector 0)
   Maximum residual norm  :     0.000216152532

                       ****Iteration    2****
   Time for iteration     :  TOTAL=16.6 TRAFO=0.0 RIJ=2.5 COSX=6.9 XC=0.5
   Size of expansion space: 5
   Lowest Energy          :     0.106970020581
   Maximum Energy change  :     0.000258608192 (vector 0)
   Maximum residual norm  :     0.000034751867

                       ****Iteration    3****
   Time for iteration     :  TOTAL=16.5 TRAFO=0.0 RIJ=2.5 COSX=6.9 XC=0.5
   Size of expansion space: 6
   Lowest Energy          :     0.106911155005
   Maximum Energy change  :     0.000058865577 (vector 0)
   Maximum residual norm  :     0.000004846900

                       ****Iteration    4****
   Time for iteration     :  TOTAL=16.8 TRAFO=0.0 RIJ=2.5 COSX=7.1 XC=0.5
   Size of expansion space: 7
   Lowest Energy          :     0.106905884863
   Maximum Energy change  :     0.000005270142 (vector 0)
   Maximum residual norm  :     0.000000698881

                       ****Iteration    5****
   Time for iteration     :  TOTAL=16.8 TRAFO=0.0 RIJ=2.5 COSX=7.1 XC=0.5
   Size of expansion space: 8
   Lowest Energy          :     0.106905094583
   Maximum Energy change  :     0.000000790279 (vector 0)
   Maximum residual norm  :     0.000000052595

      *** CONVERGENCE OF RESIDUAL NORM REACHED ***

Storing the converged CI vectors               ... HBQ-H.cis1

                 *** DAVIDSON DONE ***

Total time for solving the CIS problem:   105.148sec

------------------------------------
TD-DFT/TDA EXCITED STATES (SINGLETS)
------------------------------------

the weight of the individual excitations are printed if larger than 1.0e-02

STATE  1:  E=   0.106905 au      2.909 eV    23463.0 cm**-1 <S**2> =   0.000000 Mult 1
    67a ->  71a  :     0.014087 (c= -0.11868660)
    69a ->  70a  :     0.966106 (c= -0.98290675)


-----------------------------
TD-DFT/TDA-EXCITATION SPECTRA
-----------------------------

Center of mass = ( -2.5776,  2.1448,  0.9764)
Generating CIS transition densities           ... done

----------------------------------------------------------------------------------------------------
                     ABSORPTION SPECTRUM VIA TRANSITION ELECTRIC DIPOLE MOMENTS    
----------------------------------------------------------------------------------------------------
     Transition      Energy     Energy  Wavelength fosc(D2)      D2        DX        DY        DZ   
                      (eV)      (cm-1)    (nm)                 (au**2)    (au)      (au)      (au)  
----------------------------------------------------------------------------------------------------
  0-1A  ->  1-1A    2.909036   23463.0   426.2   0.251638391   3.53077   1.64944   0.88625   0.15705

----------------------------------------------------------------------------------------------------
                     ABSORPTION SPECTRUM VIA TRANSITION VELOCITY DIPOLE MOMENTS    
----------------------------------------------------------------------------------------------------
     Transition      Energy     Energy  Wavelength fosc(P2)      P2        PX        PY        PZ   
                      (eV)      (cm-1)    (nm)                 (au**2)    (au)      (au)      (au)  
----------------------------------------------------------------------------------------------------
  0-1A  ->  1-1A    2.909036   23463.0   426.2   0.059182297   0.00949  -0.08651  -0.04275  -0.01341

------------------------------------------------------------------------------------------
                     CD SPECTRUM VIA TRANSITION ELECTRIC DIPOLE MOMENTS    
------------------------------------------------------------------------------------------
     Transition      Energy     Energy  Wavelength    R        MX        MY        MZ   
                      (eV)      (cm-1)    (nm)   (1e40*cgs)   (au)      (au)      (au)  
------------------------------------------------------------------------------------------
  0-1A  ->  1-1A    2.909036   23463.0   426.2    1.20423  -0.07163   0.18756  -0.32241

------------------------------------------------------------------------------------------
                     CD SPECTRUM VIA TRANSITION VELOCITY DIPOLE MOMENTS    
------------------------------------------------------------------------------------------
     Transition      Energy     Energy  Wavelength    R        MX        MY        MZ   
                      (eV)      (cm-1)    (nm)   (1e40*cgs)   (au)      (au)      (au)  
------------------------------------------------------------------------------------------
  0-1A  ->  1-1A    2.909036   23463.0   426.2   11.04009  -0.07163   0.18756  -0.32241

Total run time:      106.373 sec

           *** ORCA-CIS/TD-DFT FINISHED WITHOUT ERROR ***
-----------------------
CIS/TD-DFT TOTAL ENERGY
-----------------------

    E(SCF)  =   -878.370366746 Eh
    DE(CIS) =      0.106905095 Eh (Root  1)
    ----------------------------- ---------
    E(tot)  =   -878.263461652 Eh


------------------------
TD-DFT GRADIENT XC SETUP
------------------------

Building densities                     ... done
Calculating rho(r) on the grid         ... done
Building xc-kernel on the grid         ... done
Building xc 3rd derivative on the grid ... done
                *** TD-DFT GRADIENT CALCULATION INITIALIZED ***

--------------------------
TD-DFT/TDA RELAXED DENSITY
--------------------------

Reference wavefunction             ... RHF
State of interest                  ... 1
Basis dimension                    ... 570
DFT-XC contribution needed         ... YES
RI-approximation                   ... YES
Do Coulomb                         ... YES
Do Exchange                        ... YES
Need Hartree-Fock Exchange         ... YES
facj, facx                         ...  2.000, -0.200
Conventional                       ... NO
Range separation                   ... NO
Triplet state                      ... NO
Spin Flip                          ... NO
CIS-vectors being read from        ... HBQ-H.cis
 => Number of Vectors found: 1
 => Orbital Window: 20...69 -> 70...569

Reading the CIS file                     ... done
Norm of the CI vector                    ... 1.000000000
Reading the CPCM file                    ... done
Making the CIS (pseudo)densities         ... done
Making operators G(D) and Q(T)           ... (SHARK-ok)done
Transforming the Fock operators          ... done
Making the frozen-core relaxed density   ... done
Constructing the G(H) operator           ... (SHARK-ok)done
Transforming the G(H) operator           ... done
Calculating the CIS Lagrangian           ... done
Solving the Z-vector equations           ... 

Using XC Grid                  ... (HBQ-H.grid_cpscf.tmp) 
Recalculating density on grid  ... (HBQ-H.grho_cpscf0.tmp) done
Calculating the xc-kernel      ... (HBQ-H.fxc_cpscf0.tmp) done

-------------------
SHARK CP-SCF DRIVER
-------------------

Dimension of the orbital basis          ...    570
Dimension of the CPSCF-problem          ...  35000
Number of operators                     ...      1
Max. number of iterations               ...    128
Convergence Tolerance                   ... 1.0e-04
Number of perturbations                 ...      1
Perturbation type                       ... REAL

----------------------------
POPLE LINEAR EQUATION SOLVER
----------------------------

  ITERATION   0:   ||err||_max =   1.6745e+00 (  16.9 sec)
  ITERATION   1:   ||err||_max =   8.8909e-02 (  16.9 sec)
  ITERATION   2:   ||err||_max =   1.8840e-02 (  16.5 sec)
  ITERATION   3:   ||err||_max =   6.2881e-03 (  18.8 sec)
  ITERATION   4:   ||err||_max =   2.3489e-03 (  16.7 sec)
  ITERATION   5:   ||err||_max =   1.0201e-03 (  16.8 sec)
  ITERATION   6:   ||err||_max =   3.0577e-04 (  16.7 sec)
  ITERATION   7:   ||err||_max =   1.3148e-04 (  17.2 sec)
  ITERATION   8:   ||err||_max =   3.4307e-05 (  17.1 sec)

Finalizing the relaxed density           ... done
Storing the relaxed density              ... done
Constructing the G(Z) operator           ... (SHARK-ok)done
Adding the CPCM contribution             ... done
Adding the XC terms                      ... done
Transforming the G(Z) operator           ... done
Making the W-matrix                      ... done
Finalizing the W-matrix                  ... done
Transforming the W-matrix                ... done
Nuc. rep. gradient        (SHARK) ... done (  0.0 sec)
HCore & Overlap gradient  (SHARK) ... done (  2.1 sec)
Split-RIJ-J gradient      (SHARK) ... done ( 11.7 sec)
COSX-gradient                     ... done (113.7 sec)
CPCM gradient                     ... done (  9.7 sec)
Dispersion correction             ... done (  0.0 sec)

-------------------
DISPERSION GRADIENT
-------------------

   1   C   :   -0.000564744   -0.000590539   -0.000110688
   2   C   :   -0.000486362   -0.000675017   -0.000243551
   3   C   :   -0.000232318   -0.000731324   -0.000384731
   4   C   :   -0.000443771   -0.000289037   -0.000045162
   5   C   :   -0.000004807   -0.000222082   -0.000067220
   6   O   :   -0.000240055    0.000049244    0.000105028
   7   C   :    0.000139457   -0.000567686   -0.000371263
   8   C   :    0.000577655   -0.000523073   -0.000466396
   9   C   :    0.000702745   -0.000372918   -0.000403204
  10   C   :    0.000264516    0.000257750    0.000112121
  11   C   :    0.000659120    0.000047965   -0.000130712
  12   N   :    0.000202563    0.000586315    0.000299132
  13   C   :    0.000202930    0.000701704    0.000370509
  14   C   :    0.000450784    0.000563822    0.000236279
  15   C   :    0.000743377    0.000360119    0.000038779
  16   C   :   -0.000586201    0.000237044   -0.000213249
  17   O   :   -0.000443624    0.000238473   -0.000494157
  18   N   :   -0.000384298    0.000287905    0.000254283
  19   C   :   -0.000469161    0.000301398    0.000033533
  20   C   :   -0.000082318    0.000113383    0.000688104
  21   H   :    0.000002393   -0.000031423    0.000444837
  22   H   :   -0.000010872   -0.000037074    0.000330342
  23   H   :    0.000066149    0.000161922    0.000338044
  24   H   :   -0.000237332    0.000135092   -0.000089391
  25   H   :   -0.000193709    0.000266388    0.000025748
  26   H   :   -0.000307637    0.000076381    0.000081326
  27   H   :   -0.000000737   -0.000334111   -0.000206184
  28   H   :   -0.000324439   -0.000236427   -0.000002426
  29   H   :   -0.000216110   -0.000257403   -0.000098278
  30   H   :    0.000214525   -0.000257416   -0.000214364
  31   H   :    0.000334869   -0.000137662   -0.000167233
  32   H   :   -0.000014340    0.000304204    0.000182046
  33   H   :    0.000210356    0.000232532    0.000091648
  34   H   :    0.000375698    0.000070486   -0.000051109
  35   H   :    0.000095699    0.000271064    0.000127558

Difference to translation invariance:
           :   -0.0000000000   -0.0000000000   -0.0000000000

Difference to rotation invariance:
           :    0.0000000000   -0.0000000000    0.0000000000

Norm of the Dispersion gradient    ...    0.0034229287
RMS gradient                       ...    0.0003340436
MAX gradient                       ...    0.0007433767

                 ---------------------------
                 EXCITED STATE GRADIENT DONE
                 ---------------------------

------------------
CARTESIAN GRADIENT
------------------

   1   C   :    0.000028068    0.000000341    0.000035012
   2   C   :   -0.000060527   -0.000059902    0.000018731
   3   C   :    0.000008409   -0.000024593    0.000002409
   4   C   :    0.000088337   -0.000046484   -0.000076530
   5   C   :   -0.000084633    0.000052586    0.000051878
   6   O   :   -0.000056683    0.000066816    0.000120059
   7   C   :    0.000003751    0.000018494    0.000018350
   8   C   :    0.000005371    0.000002605    0.000011174
   9   C   :    0.000034335   -0.000039066   -0.000039761
  10   C   :    0.000041816   -0.000051164   -0.000043262
  11   C   :   -0.000041210    0.000010197    0.000001927
  12   N   :   -0.000039717    0.000007800   -0.000005949
  13   C   :   -0.000009697    0.000037840    0.000009764
  14   C   :    0.000013244   -0.000002150   -0.000041320
  15   C   :   -0.000019715    0.000025286   -0.000000838
  16   C   :    0.000064339   -0.000096162   -0.000076037
  17   O   :   -0.000032707    0.000008625    0.000044818
  18   N   :    0.000020501    0.000010068    0.000020192
  19   C   :    0.000014179    0.000012457    0.000002203
  20   C   :   -0.000011403    0.000024030   -0.000017323
  21   H   :    0.000012486    0.000017291    0.000001734
  22   H   :    0.000010555   -0.000005307    0.000017015
  23   H   :   -0.000003657    0.000004577    0.000014263
  24   H   :   -0.000020159   -0.000010243    0.000018156
  25   H   :   -0.000011695   -0.000002106   -0.000003004
  26   H   :    0.000003340   -0.000002093    0.000017737
  27   H   :   -0.000013333   -0.000022906    0.000022985
  28   H   :   -0.000003169   -0.000003991    0.000017291
  29   H   :    0.000003723   -0.000011892    0.000025323
  30   H   :   -0.000010490   -0.000006703    0.000001202
  31   H   :   -0.000016682   -0.000002105   -0.000004391
  32   H   :    0.000002656    0.000011608   -0.000026531
  33   H   :   -0.000012983    0.000011987   -0.000025482
  34   H   :   -0.000012353    0.000003894   -0.000022117
  35   H   :    0.000008215    0.000020814   -0.000001328

Difference to translation invariance:
           :   -0.0000974887   -0.0000395513    0.0000883517

Difference to rotation invariance:
           :   -0.0014497070    0.0023512550    0.0008196565

Norm of the Cartesian gradient     ...    0.0003362534
RMS gradient                       ...    0.0000328150
MAX gradient                       ...    0.0001200595

------------------------------------------------------------------------------
                  RELAXED CIS/TDA DENSITY POPULATION ANALYSIS
                                   IROOT 1
------------------------------------------------------------------------------
------------------------------------------------------------------------------
                           ORCA POPULATION ANALYSIS
------------------------------------------------------------------------------
Input electron density              ... HBQ-H.cispre.singlet.iroot1
BaseName (.gbw .S,...)              ... HBQ-H

                    ********************************
                    * MULLIKEN POPULATION ANALYSIS *
                    ********************************

-----------------------
MULLIKEN ATOMIC CHARGES
-----------------------
   0 C :   -0.062835
   1 C :   -0.093802
   2 C :   -0.108106
   3 C :    0.234334
   4 C :    0.286705
   5 O :   -0.495899
   6 C :    0.226590
   7 C :   -0.173942
   8 C :   -0.176741
   9 C :   -0.099635
  10 C :    0.408510
  11 N :   -0.254754
  12 C :    0.032692
  13 C :   -0.064920
  14 C :   -0.285630
  15 C :    0.670711
  16 O :   -0.578560
  17 N :   -0.198602
  18 C :   -0.250058
  19 C :   -0.270739
  20 H :    0.161784
  21 H :    0.154863
  22 H :    0.149807
  23 H :    0.153116
  24 H :    0.146414
  25 H :    0.149479
  26 H :    0.147530
  27 H :    0.146624
  28 H :    0.135074
  29 H :    0.132832
  30 H :    0.135022
  31 H :    0.159601
  32 H :    0.126891
  33 H :    0.127974
  34 H :    0.227673
Sum of atomic charges:    1.0000000

--------------------------------
MULLIKEN REDUCED ORBITAL CHARGES
--------------------------------
  0 C s       :     3.223551  s :     3.223551
      pz      :     0.910731  p :     2.756333
      px      :     0.927496
      py      :     0.918106
      dz2     :     0.013857  d :     0.082951
      dxz     :     0.012374
      dyz     :     0.016640
      dx2y2   :     0.018126
      dxy     :     0.021954
  1 C s       :     3.192918  s :     3.192918
      pz      :     0.947580  p :     2.817000
      px      :     0.930565
      py      :     0.938854
      dz2     :     0.012715  d :     0.083884
      dxz     :     0.016421
      dyz     :     0.010959
      dx2y2   :     0.021646
      dxy     :     0.022143
  2 C s       :     3.238426  s :     3.238426
      pz      :     0.873470  p :     2.779431
      px      :     0.968568
      py      :     0.937393
      dz2     :     0.008785  d :     0.090248
      dxz     :     0.023734
      dyz     :     0.008941
      dx2y2   :     0.021082
      dxy     :     0.027705
  3 C s       :     3.191610  s :     3.191610
      pz      :     0.756678  p :     2.383362
      px      :     0.889377
      py      :     0.737308
      dz2     :     0.034004  d :     0.190694
      dxz     :     0.043972
      dyz     :     0.015379
      dx2y2   :     0.050719
      dxy     :     0.046619
  4 C s       :     3.345409  s :     3.345409
      pz      :     0.944726  p :     2.233565
      px      :     0.559934
      py      :     0.728905
      dz2     :     0.020283  d :     0.134321
      dxz     :     0.025887
      dyz     :     0.020668
      dx2y2   :     0.040347
      dxy     :     0.027135
  5 O s       :     3.859409  s :     3.859409
      pz      :     1.607877  p :     4.593004
      px      :     1.466001
      py      :     1.519126
      dz2     :     0.008531  d :     0.043486
      dxz     :     0.006208
      dyz     :     0.009561
      dx2y2   :     0.011373
      dxy     :     0.007814
  6 C s       :     3.027368  s :     3.027368
      pz      :     0.884296  p :     2.593031
      px      :     0.877852
      py      :     0.830883
      dz2     :     0.023412  d :     0.153012
      dxz     :     0.028204
      dyz     :     0.021214
      dx2y2   :     0.038735
      dxy     :     0.041446
  7 C s       :     3.248372  s :     3.248372
      pz      :     0.924406  p :     2.837080
      px      :     0.983470
      py      :     0.929204
      dz2     :     0.009061  d :     0.088489
      dxz     :     0.020083
      dyz     :     0.010645
      dx2y2   :     0.029116
      dxy     :     0.019584
  8 C s       :     3.307150  s :     3.307150
      pz      :     0.890703  p :     2.779147
      px      :     0.940045
      py      :     0.948399
      dz2     :     0.015995  d :     0.090443
      dxz     :     0.010757
      dyz     :     0.018256
      dx2y2   :     0.028168
      dxy     :     0.017266
  9 C s       :     3.087972  s :     3.087972
      pz      :     0.923120  p :     2.840099
      px      :     1.072191
      py      :     0.844789
      dz2     :     0.031215  d :     0.171564
      dxz     :     0.032529
      dyz     :     0.019114
      dx2y2   :     0.050345
      dxy     :     0.038361
 10 C s       :     2.955998  s :     2.955998
      pz      :     0.865671  p :     2.482351
      px      :     0.838134
      py      :     0.778547
      dz2     :     0.018711  d :     0.153141
      dxz     :     0.031826
      dyz     :     0.023957
      dx2y2   :     0.045576
      dxy     :     0.033072
 11 N s       :     3.442607  s :     3.442607
      pz      :     1.402093  p :     3.742959
      px      :     1.089649
      py      :     1.251217
      dz2     :     0.010147  d :     0.069188
      dxz     :     0.009580
      dyz     :     0.014408
      dx2y2   :     0.018298
      dxy     :     0.016756
 12 C s       :     3.135437  s :     3.135437
      pz      :     0.968330  p :     2.728570
      px      :     0.861703
      py      :     0.898536
      dz2     :     0.008881  d :     0.103302
      dxz     :     0.029601
      dyz     :     0.010268
      dx2y2   :     0.028934
      dxy     :     0.025619
 13 C s       :     3.149575  s :     3.149575
      pz      :     0.958566  p :     2.830644
      px      :     0.924219
      py      :     0.947859
      dz2     :     0.017542  d :     0.084701
      dxz     :     0.017485
      dyz     :     0.010293
      dx2y2   :     0.016712
      dxy     :     0.022669
 14 C s       :     3.239717  s :     3.239717
      pz      :     1.009669  p :     2.968359
      px      :     0.989199
      py      :     0.969490
      dz2     :     0.012888  d :     0.077555
      dxz     :     0.012734
      dyz     :     0.013913
      dx2y2   :     0.018229
      dxy     :     0.019790
 15 C s       :     2.819210  s :     2.819210
      pz      :     0.719914  p :     2.211427
      px      :     0.685099
      py      :     0.806414
      dz2     :     0.078794  d :     0.298652
      dxz     :     0.075738
      dyz     :     0.077586
      dx2y2   :     0.037881
      dxy     :     0.028653
 16 O s       :     3.883847  s :     3.883847
      pz      :     1.442981  p :     4.660508
      px      :     1.639135
      py      :     1.578391
      dz2     :     0.011187  d :     0.034205
      dxz     :     0.009620
      dyz     :     0.009258
      dx2y2   :     0.001781
      dxy     :     0.002358
 17 N s       :     3.439314  s :     3.439314
      pz      :     1.107776  p :     3.666881
      px      :     1.184250
      py      :     1.374855
      dz2     :     0.022875  d :     0.092406
      dxz     :     0.024857
      dyz     :     0.018728
      dx2y2   :     0.013890
      dxy     :     0.012057
 18 C s       :     3.250544  s :     3.250544
      pz      :     1.108044  p :     2.937300
      px      :     0.839932
      py      :     0.989324
      dz2     :     0.008426  d :     0.062214
      dxz     :     0.011351
      dyz     :     0.005999
      dx2y2   :     0.024031
      dxy     :     0.012407
 19 C s       :     3.254094  s :     3.254094
      pz      :     0.818448  p :     2.952390
      px      :     1.032208
      py      :     1.101734
      dz2     :     0.015169  d :     0.064255
      dxz     :     0.016035
      dyz     :     0.017678
      dx2y2   :     0.005399
      dxy     :     0.009973
 20 H s       :     0.813766  s :     0.813766
      pz      :     0.003642  p :     0.024451
      px      :     0.010638
      py      :     0.010171
 21 H s       :     0.822021  s :     0.822021
      pz      :     0.009515  p :     0.023116
      px      :     0.008618
      py      :     0.004983
 22 H s       :     0.827192  s :     0.827192
      pz      :     0.003754  p :     0.023001
      px      :     0.006180
      py      :     0.013066
 23 H s       :     0.822319  s :     0.822319
      pz      :     0.014810  p :     0.024565
      px      :     0.005489
      py      :     0.004266
 24 H s       :     0.830628  s :     0.830628
      pz      :     0.005273  p :     0.022958
      px      :     0.003443
      py      :     0.014242
 25 H s       :     0.827532  s :     0.827532
      pz      :     0.008522  p :     0.022989
      px      :     0.009127
      py      :     0.005340
 26 H s       :     0.826173  s :     0.826173
      pz      :     0.008707  p :     0.026298
      px      :     0.005011
      py      :     0.012579
 27 H s       :     0.826346  s :     0.826346
      pz      :     0.005628  p :     0.027030
      px      :     0.017555
      py      :     0.003848
 28 H s       :     0.838342  s :     0.838342
      pz      :     0.005639  p :     0.026584
      px      :     0.009635
      py      :     0.011310
 29 H s       :     0.840593  s :     0.840593
      pz      :     0.009127  p :     0.026575
      px      :     0.004501
      py      :     0.012947
 30 H s       :     0.838842  s :     0.838842
      pz      :     0.005380  p :     0.026136
      px      :     0.016980
      py      :     0.003776
 31 H s       :     0.814166  s :     0.814166
      pz      :     0.009464  p :     0.026233
      px      :     0.004305
      py      :     0.012465
 32 H s       :     0.846582  s :     0.846582
      pz      :     0.005839  p :     0.026527
      px      :     0.009621
      py      :     0.011067
 33 H s       :     0.844587  s :     0.844587
      pz      :     0.006894  p :     0.027439
      px      :     0.016153
      py      :     0.004392
 34 H s       :     0.721075  s :     0.721075
      pz      :     0.012710  p :     0.051251
      px      :     0.030341
      py      :     0.008200


                     *******************************
                     * LOEWDIN POPULATION ANALYSIS *
                     *******************************

----------------------
LOEWDIN ATOMIC CHARGES
----------------------
   0 C :   -0.016307
   1 C :   -0.099753
   2 C :    0.011857
   3 C :   -0.076986
   4 C :   -0.028780
   5 O :    0.196437
   6 C :   -0.057477
   7 C :   -0.041829
   8 C :    0.005188
   9 C :   -0.044710
  10 C :   -0.097607
  11 N :    0.149812
  12 C :   -0.112701
  13 C :   -0.143414
  14 C :   -0.108673
  15 C :   -0.329280
  16 O :   -0.051560
  17 N :    0.098457
  18 C :   -0.200987
  19 C :   -0.207103
  20 H :    0.121650
  21 H :    0.121441
  22 H :    0.118040
  23 H :    0.122167
  24 H :    0.119369
  25 H :    0.119070
  26 H :    0.161083
  27 H :    0.162286
  28 H :    0.154962
  29 H :    0.158755
  30 H :    0.159572
  31 H :    0.147401
  32 H :    0.149234
  33 H :    0.144009
  34 H :    0.196377

-------------------------------
LOEWDIN REDUCED ORBITAL CHARGES
-------------------------------
  0 C s       :     2.780807  s :     2.780807
      pz      :     0.890572  p :     2.879266
      px      :     0.998586
      py      :     0.990107
      dz2     :     0.049158  d :     0.356235
      dxz     :     0.053447
      dyz     :     0.061763
      dx2y2   :     0.105372
      dxy     :     0.086494
  1 C s       :     2.774536  s :     2.774536
      pz      :     0.936468  p :     2.963320
      px      :     1.038923
      py      :     0.987929
      dz2     :     0.045433  d :     0.361897
      dxz     :     0.071437
      dyz     :     0.042029
      dx2y2   :     0.081770
      dxy     :     0.121228
  2 C s       :     2.781144  s :     2.781144
      pz      :     0.844728  p :     2.838152
      px      :     1.049795
      py      :     0.943629
      dz2     :     0.029261  d :     0.368847
      dxz     :     0.082405
      dyz     :     0.044089
      dx2y2   :     0.100802
      dxy     :     0.112291
  3 C s       :     2.724312  s :     2.724312
      pz      :     0.826467  p :     2.714565
      px      :     1.021566
      py      :     0.866532
      dz2     :     0.095191  d :     0.638108
      dxz     :     0.118519
      dyz     :     0.111612
      dx2y2   :     0.165433
      dxy     :     0.147353
  4 C s       :     2.698475  s :     2.698475
      pz      :     0.926072  p :     2.864601
      px      :     0.974829
      py      :     0.963699
      dz2     :     0.059540  d :     0.465704
      dxz     :     0.089533
      dyz     :     0.064928
      dx2y2   :     0.132237
      dxy     :     0.119467
  5 O s       :     3.277149  s :     3.277149
      pz      :     1.546607  p :     4.426036
      px      :     1.418880
      py      :     1.460549
      dz2     :     0.017858  d :     0.100378
      dxz     :     0.015006
      dyz     :     0.018319
      dx2y2   :     0.025469
      dxy     :     0.023727
  6 C s       :     2.707162  s :     2.707162
      pz      :     0.888057  p :     2.853224
      px      :     1.009713
      py      :     0.955454
      dz2     :     0.070448  d :     0.497090
      dxz     :     0.089620
      dyz     :     0.069348
      dx2y2   :     0.130459
      dxy     :     0.137215
  7 C s       :     2.769937  s :     2.769937
      pz      :     0.900438  p :     2.909503
      px      :     1.031335
      py      :     0.977730
      dz2     :     0.030518  d :     0.362388
      dxz     :     0.071255
      dyz     :     0.048032
      dx2y2   :     0.111406
      dxy     :     0.101178
  8 C s       :     2.777693  s :     2.777693
      pz      :     0.857881  p :     2.850195
      px      :     1.013849
      py      :     0.978464
      dz2     :     0.051131  d :     0.366924
      dxz     :     0.048777
      dyz     :     0.065685
      dx2y2   :     0.121796
      dxy     :     0.079535
  9 C s       :     2.700360  s :     2.700360
      pz      :     0.879999  p :     2.779837
      px      :     1.007660
      py      :     0.892178
      dz2     :     0.092431  d :     0.564513
      dxz     :     0.095063
      dyz     :     0.091733
      dx2y2   :     0.143286
      dxy     :     0.142001
 10 C s       :     2.706147  s :     2.706147
      pz      :     0.905685  p :     2.884724
      px      :     1.006889
      py      :     0.972150
      dz2     :     0.057137  d :     0.506736
      dxz     :     0.104209
      dyz     :     0.073612
      dx2y2   :     0.141870
      dxy     :     0.129908
 11 N s       :     2.929945  s :     2.929945
      pz      :     1.307758  p :     3.701316
      px      :     1.169700
      py      :     1.223858
      dz2     :     0.028156  d :     0.218927
      dxz     :     0.032238
      dyz     :     0.038773
      dx2y2   :     0.069176
      dxy     :     0.050584
 12 C s       :     2.784123  s :     2.784123
      pz      :     0.933139  p :     2.880652
      px      :     1.019926
      py      :     0.927587
      dz2     :     0.037656  d :     0.447925
      dxz     :     0.104335
      dyz     :     0.053013
      dx2y2   :     0.115837
      dxy     :     0.137085
 13 C s       :     2.777792  s :     2.777792
      pz      :     0.949743  p :     2.985657
      px      :     1.041251
      py      :     0.994663
      dz2     :     0.061791  d :     0.379965
      dxz     :     0.074968
      dyz     :     0.042547
      dx2y2   :     0.078765
      dxy     :     0.121895
 14 C s       :     2.774729  s :     2.774729
      pz      :     0.973216  p :     2.980782
      px      :     0.996163
      py      :     1.011404
      dz2     :     0.046055  d :     0.353161
      dxz     :     0.054537
      dyz     :     0.060282
      dx2y2   :     0.108971
      dxy     :     0.083316
 15 C s       :     2.721869  s :     2.721869
      pz      :     0.975546  p :     2.613345
      px      :     0.820044
      py      :     0.817755
      dz2     :     0.266846  d :     0.994065
      dxz     :     0.262534
      dyz     :     0.218757
      dx2y2   :     0.136031
      dxy     :     0.109897
 16 O s       :     3.430155  s :     3.430155
      pz      :     1.492555  p :     4.552729
      px      :     1.573304
      py      :     1.486870
      dz2     :     0.024847  d :     0.068676
      dxz     :     0.021791
      dyz     :     0.014871
      dx2y2   :     0.003477
      dxy     :     0.003689
 17 N s       :     2.920356  s :     2.920356
      pz      :     1.178854  p :     3.706656
      px      :     1.223204
      py      :     1.304598
      dz2     :     0.070931  d :     0.274532
      dxz     :     0.074139
      dyz     :     0.054659
      dx2y2   :     0.038848
      dxy     :     0.035955
 18 C s       :     2.835919  s :     2.835919
      pz      :     1.106187  p :     3.071141
      px      :     0.933565
      py      :     1.031388
      dz2     :     0.044102  d :     0.293928
      dxz     :     0.066656
      dyz     :     0.022443
      dx2y2   :     0.096387
      dxy     :     0.064339
 19 C s       :     2.836974  s :     2.836974
      pz      :     0.909364  p :     3.073686
      px      :     1.058776
      py      :     1.105546
      dz2     :     0.076033  d :     0.296443
      dxz     :     0.085676
      dyz     :     0.058086
      dx2y2   :     0.019814
      dxy     :     0.056833
 20 H s       :     0.814082  s :     0.814082
      pz      :     0.010273  p :     0.064268
      px      :     0.027022
      py      :     0.026973
 21 H s       :     0.817665  s :     0.817665
      pz      :     0.022916  p :     0.060893
      px      :     0.023641
      py      :     0.014336
 22 H s       :     0.821007  s :     0.821007
      pz      :     0.010510  p :     0.060953
      px      :     0.016724
      py      :     0.033719
 23 H s       :     0.813815  s :     0.813815
      pz      :     0.038225  p :     0.064017
      px      :     0.013760
      py      :     0.012032
 24 H s       :     0.819794  s :     0.819794
      pz      :     0.015249  p :     0.060837
      px      :     0.010331
      py      :     0.035257
 25 H s       :     0.820101  s :     0.820101
      pz      :     0.023023  p :     0.060829
      px      :     0.022499
      py      :     0.015307
 26 H s       :     0.776787  s :     0.776787
      pz      :     0.020034  p :     0.062130
      px      :     0.013938
      py      :     0.028158
 27 H s       :     0.774381  s :     0.774381
      pz      :     0.014246  p :     0.063333
      px      :     0.037881
      py      :     0.011207
 28 H s       :     0.782673  s :     0.782673
      pz      :     0.014382  p :     0.062365
      px      :     0.022630
      py      :     0.025354
 29 H s       :     0.779002  s :     0.779002
      pz      :     0.020834  p :     0.062244
      px      :     0.012900
      py      :     0.028509
 30 H s       :     0.778965  s :     0.778965
      pz      :     0.013545  p :     0.061463
      px      :     0.036740
      py      :     0.011178
 31 H s       :     0.788730  s :     0.788730
      pz      :     0.022229  p :     0.063869
      px      :     0.012894
      py      :     0.028746
 32 H s       :     0.789206  s :     0.789206
      pz      :     0.014664  p :     0.061560
      px      :     0.022263
      py      :     0.024633
 33 H s       :     0.791315  s :     0.791315
      pz      :     0.017312  p :     0.064676
      px      :     0.034615
      py      :     0.012750
 34 H s       :     0.683792  s :     0.683792
      pz      :     0.031007  p :     0.119830
      px      :     0.067274
      py      :     0.021549


                      *****************************
                      * MAYER POPULATION ANALYSIS *
                      *****************************

  NA   - Mulliken gross atomic population
  ZA   - Total nuclear charge
  QA   - Mulliken gross atomic charge
  VA   - Mayer's total valence
  BVA  - Mayer's bonded valence
  FA   - Mayer's free valence

  ATOM       NA         ZA         QA         VA         BVA        FA
  0 C      6.0628     6.0000    -0.0628     3.8699     3.6914     0.1786
  1 C      6.0938     6.0000    -0.0938     3.8482     3.7945     0.0537
  2 C      6.1081     6.0000    -0.1081     3.7663     3.5378     0.2285
  3 C      5.7657     6.0000     0.2343     3.7287     3.6057     0.1230
  4 C      5.7133     6.0000     0.2867     3.5147     3.4695     0.0452
  5 O      8.4959     8.0000    -0.4959     2.0485     1.9967     0.0518
  6 C      5.7734     6.0000     0.2266     3.9074     3.8334     0.0740
  7 C      6.1739     6.0000    -0.1739     3.7378     3.6213     0.1165
  8 C      6.1767     6.0000    -0.1767     3.7620     3.6116     0.1504
  9 C      6.0996     6.0000    -0.0996     3.8365     3.7410     0.0954
 10 C      5.5915     6.0000     0.4085     3.8135     3.7956     0.0179
 11 N      7.2548     7.0000    -0.2548     3.3731     3.1951     0.1780
 12 C      5.9673     6.0000     0.0327     3.9392     3.7488     0.1904
 13 C      6.0649     6.0000    -0.0649     3.8801     3.8227     0.0574
 14 C      6.2856     6.0000    -0.2856     3.9191     3.6290     0.2902
 15 C      5.3293     6.0000     0.6707     4.2171     4.2132     0.0039
 16 O      8.5786     8.0000    -0.5786     2.0326     2.0260     0.0066
 17 N      7.1986     7.0000    -0.1986     3.2822     3.2785     0.0038
 18 C      6.2501     6.0000    -0.2501     3.8213     3.8210     0.0003
 19 C      6.2707     6.0000    -0.2707     3.8308     3.8298     0.0010
 20 H      0.8382     1.0000     0.1618     0.9651     0.9647     0.0004
 21 H      0.8451     1.0000     0.1549     0.9473     0.9469     0.0004
 22 H      0.8502     1.0000     0.1498     0.9496     0.9495     0.0001
 23 H      0.8469     1.0000     0.1531     0.9782     0.9781     0.0000
 24 H      0.8536     1.0000     0.1464     0.9496     0.9493     0.0003
 25 H      0.8505     1.0000     0.1495     0.9507     0.9503     0.0005
 26 H      0.8525     1.0000     0.1475     0.9654     0.9647     0.0007
 27 H      0.8534     1.0000     0.1466     0.9706     0.9694     0.0012
 28 H      0.8649     1.0000     0.1351     0.9647     0.9642     0.0005
 29 H      0.8672     1.0000     0.1328     0.9709     0.9703     0.0006
 30 H      0.8650     1.0000     0.1350     0.9696     0.9687     0.0008
 31 H      0.8404     1.0000     0.1596     0.9657     0.9641     0.0017
 32 H      0.8731     1.0000     0.1269     0.9668     0.9667     0.0001
 33 H      0.8720     1.0000     0.1280     0.9726     0.9703     0.0023
 34 H      0.7723     1.0000     0.2277     0.9500     0.9485     0.0015

  Mayer bond orders larger than 0.100000
B(  0-C ,  1-C ) :   1.2990 B(  0-C ,  3-C ) :   1.2658 B(  0-C , 27-H ) :   0.9706 
B(  1-C ,  2-C ) :   1.3575 B(  1-C , 28-H ) :   0.9892 B(  2-C ,  6-C ) :   1.1417 
B(  2-C , 26-H ) :   0.9813 B(  3-C ,  4-C ) :   1.1754 B(  3-C ,  5-O ) :   0.9538 
B(  4-C ,  6-C ) :   1.2740 B(  4-C ,  9-C ) :   1.0456 B(  5-O , 15-C ) :   0.9071 
B(  6-C ,  7-C ) :   1.2782 B(  7-C ,  8-C ) :   1.2739 B(  7-C , 29-H ) :   1.0015 
B(  8-C , 10-C ) :   1.1718 B(  8-C , 30-H ) :   1.0065 B(  9-C , 10-C ) :   1.3669 
B(  9-C , 11-N ) :   1.1761 B( 10-C , 14-C ) :   1.2072 B( 11-N , 12-C ) :   1.1425 
B( 11-N , 34-H ) :   0.8823 B( 12-C , 13-C ) :   1.5331 B( 12-C , 31-H ) :   0.9474 
B( 13-C , 14-C ) :   1.2754 B( 13-C , 32-H ) :   0.9691 B( 14-C , 33-H ) :   0.9697 
B( 15-C , 16-O ) :   1.8553 B( 15-C , 17-N ) :   1.3938 B( 17-N , 18-C ) :   0.9267 
B( 17-N , 19-C ) :   0.9312 B( 18-C , 23-H ) :   0.9615 B( 18-C , 24-H ) :   0.9569 
B( 18-C , 25-H ) :   0.9603 B( 19-C , 20-H ) :   0.9577 B( 19-C , 21-H ) :   0.9542 
B( 19-C , 22-H ) :   0.9612 


-------
TIMINGS
-------

Total TD-DFT gradient time  ....      482.674 sec

Fock matrix formation       ....     125.582 sec  ( 26.0%)
  Coulomb formation         ....     114.360 sec  ( 91.1% of F)
  XC integration            ....      11.222 sec  (  8.9% of F)
Z-vector equation           ....     155.043 sec  ( 32.1%)
Densities                   ....       0.000 sec  (  0.0%)
One electron gradient       ....       2.050 sec  (  0.4%)
Two electron gradient       ....       0.000 sec  (  0.0%)
RI-J Coulomb gradient       ....      11.697 sec  (  2.4%)
COSX gradient               ....      26.635 sec  (  5.5%)
XC gradient                 ....     113.711 sec  ( 23.6%)
CPCM gradient               ....       9.652 sec  (  2.0%)
   A-Matrix (El+Nuc)        ....       0.243 sec  (  0.1%)
   Potential                ....       9.409 sec  (  1.9%)

Maximum memory used throughout the entire CIS-calculation: 268.5 MB
=> NOW LEAVING ORCA_CIS


-------------------------------------------------------------------------------
                          DFT DISPERSION CORRECTION                            
                                                                               
                              DFTD3 V3.1  Rev 1                                
                          USING Becke-Johnson damping                          
-------------------------------------------------------------------------------
The B3LYP functional is recognized
Active option DFTDOPT                   ...         4   

molecular C6(AA) [au] = 14253.064727 


            DFT-D V3
 parameters
 s6 scaling factor         :     1.0000 
 a1 scaling factor         :     0.3981 
 s8 scaling factor         :     1.9889 
 a2 scaling factor         :     4.4211 
 ad hoc parameters k1-k3   :    16.0000     1.3333    -4.0000 

 Edisp/kcal,au: -48.536860864752  -0.077348403002 
 E6   /kcal   : -22.824492914 
 E8   /kcal   : -25.712367951 
 % E8         :  52.974929760 

-------------------------   ----------------
Dispersion correction           -0.077348403
-------------------------   ----------------


-------------------------   --------------------
FINAL SINGLE POINT ENERGY      -878.340810054716
-------------------------   --------------------

                                *** OPTIMIZATION RUN DONE ***


------------------------------------------------------------------------------
                              ORCA PROPERTY CALCULATIONS
------------------------------------------------------------------------------

GBWName                                 ... HBQ-H.gbw
Number of atoms                         ...     35
Number of basis functions               ...    570
Max core memory                         ...   1024 MB

Electric properties:
Dipole moment                           ... YES
Quadrupole moment                       ...  NO
Static polarizability (Dipole/Dipole)   ...  NO
Static polarizability (Dipole/Quad.)    ...  NO
Static polarizability (Quad./Quad.)     ...  NO
Static polarizability (Velocity)        ...  NO

Atomic electric properties:
Dipole moment                           ...  NO
Quadrupole moment                       ...  NO
Static polarizability                   ...  NO

Choice of electric origin               ... Center of mass
Position of electric origin             ...    -2.577625     2.144811     0.976372

General magnetic properties:
Magnetizability                         ...  NO

EPR properties:
g-Tensor (aka g-matrix)                 ...  NO
Zero-Field splitting spin-orbit         ...  NO
Zero-field splitting spin-spin          ...  NO
Hyperfine couplings                     ...  NO (   0 nuclei)
Quadrupole couplings                    ...  NO (   0 nuclei)
Contact density                         ...  NO (   0 nuclei)

NMR properties:
Chemical shifts                         ...  NO (   0 nuclei)
Spin-rotation constants                 ...  NO (   0 nuclei)
Spin-spin couplings                     ...  NO (   0 nuclei,    0 pairs)

Choice of magnetic origin               ... GIAO
Position of magnetic origin             ...     0.000000     0.000000     0.000000

Properties with geometric perturbations:
SCF Hessian                             ...  NO
IR spectrum                             ... YES
VCD spectrum                            ...  NO
X-ray spectroscopy properties:
SCF XES/XAS/RIXS spectra                ...  NO


-------------
DIPOLE MOMENT
-------------

Method             : SCF
Type of density    : Electron Density
Multiplicity       :   1
Irrep              :   0
Energy             :  -878.3703667462980320 Eh
Relativity type    : 
Basis              : AO
                                X                 Y                 Z
Electronic contribution:      8.624942614      -3.637590363      -6.035412786
Nuclear contribution   :     -5.915406536       5.351229951       8.176173712
                        -----------------------------------------
Total Dipole Moment    :      2.709536078       1.713639588       2.140760925
                        -----------------------------------------
Magnitude (a.u.)       :      3.854997242
Magnitude (Debye)      :      9.798624279



--------------------
Rotational spectrum 
--------------------
 
Rotational constants in cm-1:             0.017067             0.009333             0.006368 
Rotational constants in MHz :           511.670670           279.789929           190.903157 

Dipole components along the rotational axes: 
x,y,z [a.u.] :     1.495664     3.330669     1.237188 
x,y,z [Debye]:     3.801675     8.465889     3.144683 

 

-------------
DIPOLE MOMENT
-------------

Method             : TDA/CIS
Type of density    : Electron Density
Level              : Relaxed density
State              :   1
Multiplicity       :   1
Irrep              :   0
Energy             :     0.0000000000000000 Eh
Relativity type    : 
Basis              : AO
                                X                 Y                 Z
Electronic contribution:      6.385194914      -6.110318188      -7.040727196
Nuclear contribution   :     -5.915406536       5.351229951       8.176173712
                        -----------------------------------------
Total Dipole Moment    :      0.469788378      -0.759088236       1.135446516
                        -----------------------------------------
Magnitude (a.u.)       :      1.444352748
Magnitude (Debye)      :      3.671252927



--------------------
Rotational spectrum 
--------------------
 
Rotational constants in cm-1:             0.017067             0.009333             0.006368 
Rotational constants in MHz :           511.670670           279.789929           190.903157 

Dipole components along the rotational axes: 
x,y,z [a.u.] :     0.273708     0.072412     1.416332 
x,y,z [Debye]:     0.695711     0.184056     3.600029 

 

Dipole moment calculation done in   0.1 sec 

Maximum memory used throughout the entire PROP-calculation: 67.6 MB

----------------------------------------------------------------------------
                           ORCA NUMERICAL FREQUENCIES
----------------------------------------------------------------------------

Number of atoms                ... 35
Central differences            ... used
Number of displacements        ... 210
Numerical increment            ... 5.000e-03 bohr
IR-spectrum generation         ... on
Raman-spectrum generation      ... off
Surface Crossing Hessian       ... off

The output will be reduced. Please look at the following files:
SCF program output             ... >HBQ-H.lastscf
Integral program output        ... >HBQ-H.lastint
Gradient program output        ... >HBQ-H.lastgrad
Dipole moment program output   ... >HBQ-H.lastmom

	<< Calculating gradient on displaced geometry   1 (of 210) >>
	<< Calculating gradient on displaced geometry   2 (of 210) >>
	<< Calculating gradient on displaced geometry   3 (of 210) >>
	<< Calculating gradient on displaced geometry   4 (of 210) >>
	<< Calculating gradient on displaced geometry   5 (of 210) >>
	<< Calculating gradient on displaced geometry   6 (of 210) >>
	<< Calculating gradient on displaced geometry   7 (of 210) >>
	<< Calculating gradient on displaced geometry   8 (of 210) >>
	<< Calculating gradient on displaced geometry   9 (of 210) >>
	<< Calculating gradient on displaced geometry  10 (of 210) >>
	<< Calculating gradient on displaced geometry  11 (of 210) >>
	<< Calculating gradient on displaced geometry  12 (of 210) >>
	<< Calculating gradient on displaced geometry  13 (of 210) >>
	<< Calculating gradient on displaced geometry  14 (of 210) >>
	<< Calculating gradient on displaced geometry  15 (of 210) >>
	<< Calculating gradient on displaced geometry  16 (of 210) >>
	<< Calculating gradient on displaced geometry  17 (of 210) >>
	<< Calculating gradient on displaced geometry  18 (of 210) >>
	<< Calculating gradient on displaced geometry  19 (of 210) >>
	<< Calculating gradient on displaced geometry  20 (of 210) >>
	<< Calculating gradient on displaced geometry  21 (of 210) >>
	<< Calculating gradient on displaced geometry  22 (of 210) >>
	<< Calculating gradient on displaced geometry  23 (of 210) >>
	<< Calculating gradient on displaced geometry  24 (of 210) >>
	<< Calculating gradient on displaced geometry  25 (of 210) >>
	<< Calculating gradient on displaced geometry  26 (of 210) >>
	<< Calculating gradient on displaced geometry  27 (of 210) >>
	<< Calculating gradient on displaced geometry  28 (of 210) >>
	<< Calculating gradient on displaced geometry  29 (of 210) >>
	<< Calculating gradient on displaced geometry  30 (of 210) >>
	<< Calculating gradient on displaced geometry  31 (of 210) >>
	<< Calculating gradient on displaced geometry  32 (of 210) >>
	<< Calculating gradient on displaced geometry  33 (of 210) >>
	<< Calculating gradient on displaced geometry  34 (of 210) >>
	<< Calculating gradient on displaced geometry  35 (of 210) >>
	<< Calculating gradient on displaced geometry  36 (of 210) >>
	<< Calculating gradient on displaced geometry  37 (of 210) >>
	<< Calculating gradient on displaced geometry  38 (of 210) >>
	<< Calculating gradient on displaced geometry  39 (of 210) >>
	<< Calculating gradient on displaced geometry  40 (of 210) >>
	<< Calculating gradient on displaced geometry  41 (of 210) >>
	<< Calculating gradient on displaced geometry  42 (of 210) >>
	<< Calculating gradient on displaced geometry  43 (of 210) >>
	<< Calculating gradient on displaced geometry  44 (of 210) >>
	<< Calculating gradient on displaced geometry  45 (of 210) >>
	<< Calculating gradient on displaced geometry  46 (of 210) >>
	<< Calculating gradient on displaced geometry  47 (of 210) >>
	<< Calculating gradient on displaced geometry  48 (of 210) >>
	<< Calculating gradient on displaced geometry  49 (of 210) >>
	<< Calculating gradient on displaced geometry  50 (of 210) >>
	<< Calculating gradient on displaced geometry  51 (of 210) >>
	<< Calculating gradient on displaced geometry  52 (of 210) >>
	<< Calculating gradient on displaced geometry  53 (of 210) >>
	<< Calculating gradient on displaced geometry  54 (of 210) >>
	<< Calculating gradient on displaced geometry  55 (of 210) >>
	<< Calculating gradient on displaced geometry  56 (of 210) >>
	<< Calculating gradient on displaced geometry  57 (of 210) >>
	<< Calculating gradient on displaced geometry  58 (of 210) >>
	<< Calculating gradient on displaced geometry  59 (of 210) >>
	<< Calculating gradient on displaced geometry  60 (of 210) >>
	<< Calculating gradient on displaced geometry  61 (of 210) >>
	<< Calculating gradient on displaced geometry  62 (of 210) >>
	<< Calculating gradient on displaced geometry  63 (of 210) >>
	<< Calculating gradient on displaced geometry  64 (of 210) >>
	<< Calculating gradient on displaced geometry  65 (of 210) >>
	<< Calculating gradient on displaced geometry  66 (of 210) >>
	<< Calculating gradient on displaced geometry  67 (of 210) >>
	<< Calculating gradient on displaced geometry  68 (of 210) >>
	<< Calculating gradient on displaced geometry  69 (of 210) >>
	<< Calculating gradient on displaced geometry  70 (of 210) >>
	<< Calculating gradient on displaced geometry  71 (of 210) >>
	<< Calculating gradient on displaced geometry  72 (of 210) >>
	<< Calculating gradient on displaced geometry  73 (of 210) >>
	<< Calculating gradient on displaced geometry  74 (of 210) >>
	<< Calculating gradient on displaced geometry  75 (of 210) >>
	<< Calculating gradient on displaced geometry  76 (of 210) >>
	<< Calculating gradient on displaced geometry  77 (of 210) >>
	<< Calculating gradient on displaced geometry  78 (of 210) >>
	<< Calculating gradient on displaced geometry  79 (of 210) >>
	<< Calculating gradient on displaced geometry  80 (of 210) >>
	<< Calculating gradient on displaced geometry  81 (of 210) >>
	<< Calculating gradient on displaced geometry  82 (of 210) >>
	<< Calculating gradient on displaced geometry  83 (of 210) >>
	<< Calculating gradient on displaced geometry  84 (of 210) >>
	<< Calculating gradient on displaced geometry  85 (of 210) >>
	<< Calculating gradient on displaced geometry  86 (of 210) >>
	<< Calculating gradient on displaced geometry  87 (of 210) >>
	<< Calculating gradient on displaced geometry  88 (of 210) >>
	<< Calculating gradient on displaced geometry  89 (of 210) >>
	<< Calculating gradient on displaced geometry  90 (of 210) >>
	<< Calculating gradient on displaced geometry  91 (of 210) >>
	<< Calculating gradient on displaced geometry  92 (of 210) >>
	<< Calculating gradient on displaced geometry  93 (of 210) >>
	<< Calculating gradient on displaced geometry  94 (of 210) >>
	<< Calculating gradient on displaced geometry  95 (of 210) >>
	<< Calculating gradient on displaced geometry  96 (of 210) >>
	<< Calculating gradient on displaced geometry  97 (of 210) >>
	<< Calculating gradient on displaced geometry  98 (of 210) >>
	<< Calculating gradient on displaced geometry  99 (of 210) >>
	<< Calculating gradient on displaced geometry 100 (of 210) >>
	<< Calculating gradient on displaced geometry 101 (of 210) >>
	<< Calculating gradient on displaced geometry 102 (of 210) >>
	<< Calculating gradient on displaced geometry 103 (of 210) >>
	<< Calculating gradient on displaced geometry 104 (of 210) >>
	<< Calculating gradient on displaced geometry 105 (of 210) >>
	<< Calculating gradient on displaced geometry 106 (of 210) >>
	<< Calculating gradient on displaced geometry 107 (of 210) >>
	<< Calculating gradient on displaced geometry 108 (of 210) >>
	<< Calculating gradient on displaced geometry 109 (of 210) >>
	<< Calculating gradient on displaced geometry 110 (of 210) >>
	<< Calculating gradient on displaced geometry 111 (of 210) >>
	<< Calculating gradient on displaced geometry 112 (of 210) >>
	<< Calculating gradient on displaced geometry 113 (of 210) >>
	<< Calculating gradient on displaced geometry 114 (of 210) >>
	<< Calculating gradient on displaced geometry 115 (of 210) >>
	<< Calculating gradient on displaced geometry 116 (of 210) >>
	<< Calculating gradient on displaced geometry 117 (of 210) >>
	<< Calculating gradient on displaced geometry 118 (of 210) >>
	<< Calculating gradient on displaced geometry 119 (of 210) >>
	<< Calculating gradient on displaced geometry 120 (of 210) >>
	<< Calculating gradient on displaced geometry 121 (of 210) >>
	<< Calculating gradient on displaced geometry 122 (of 210) >>
	<< Calculating gradient on displaced geometry 123 (of 210) >>
	<< Calculating gradient on displaced geometry 124 (of 210) >>
	<< Calculating gradient on displaced geometry 125 (of 210) >>
	<< Calculating gradient on displaced geometry 126 (of 210) >>
	<< Calculating gradient on displaced geometry 127 (of 210) >>
	<< Calculating gradient on displaced geometry 128 (of 210) >>
	<< Calculating gradient on displaced geometry 129 (of 210) >>
	<< Calculating gradient on displaced geometry 130 (of 210) >>
	<< Calculating gradient on displaced geometry 131 (of 210) >>
	<< Calculating gradient on displaced geometry 132 (of 210) >>
	<< Calculating gradient on displaced geometry 133 (of 210) >>
	<< Calculating gradient on displaced geometry 134 (of 210) >>
	<< Calculating gradient on displaced geometry 135 (of 210) >>
	<< Calculating gradient on displaced geometry 136 (of 210) >>
	<< Calculating gradient on displaced geometry 137 (of 210) >>
	<< Calculating gradient on displaced geometry 138 (of 210) >>
	<< Calculating gradient on displaced geometry 139 (of 210) >>
	<< Calculating gradient on displaced geometry 140 (of 210) >>
	<< Calculating gradient on displaced geometry 141 (of 210) >>
	<< Calculating gradient on displaced geometry 142 (of 210) >>
	<< Calculating gradient on displaced geometry 143 (of 210) >>
	<< Calculating gradient on displaced geometry 144 (of 210) >>
	<< Calculating gradient on displaced geometry 145 (of 210) >>
	<< Calculating gradient on displaced geometry 146 (of 210) >>
	<< Calculating gradient on displaced geometry 147 (of 210) >>
	<< Calculating gradient on displaced geometry 148 (of 210) >>
	<< Calculating gradient on displaced geometry 149 (of 210) >>
	<< Calculating gradient on displaced geometry 150 (of 210) >>
	<< Calculating gradient on displaced geometry 151 (of 210) >>
	<< Calculating gradient on displaced geometry 152 (of 210) >>
	<< Calculating gradient on displaced geometry 153 (of 210) >>
	<< Calculating gradient on displaced geometry 154 (of 210) >>
	<< Calculating gradient on displaced geometry 155 (of 210) >>
	<< Calculating gradient on displaced geometry 156 (of 210) >>
	<< Calculating gradient on displaced geometry 157 (of 210) >>
	<< Calculating gradient on displaced geometry 158 (of 210) >>
	<< Calculating gradient on displaced geometry 159 (of 210) >>
	<< Calculating gradient on displaced geometry 160 (of 210) >>
	<< Calculating gradient on displaced geometry 161 (of 210) >>
	<< Calculating gradient on displaced geometry 162 (of 210) >>
	<< Calculating gradient on displaced geometry 163 (of 210) >>
	<< Calculating gradient on displaced geometry 164 (of 210) >>
	<< Calculating gradient on displaced geometry 165 (of 210) >>
	<< Calculating gradient on displaced geometry 166 (of 210) >>
	<< Calculating gradient on displaced geometry 167 (of 210) >>
	<< Calculating gradient on displaced geometry 168 (of 210) >>
	<< Calculating gradient on displaced geometry 169 (of 210) >>
	<< Calculating gradient on displaced geometry 170 (of 210) >>
	<< Calculating gradient on displaced geometry 171 (of 210) >>
	<< Calculating gradient on displaced geometry 172 (of 210) >>
	<< Calculating gradient on displaced geometry 173 (of 210) >>
	<< Calculating gradient on displaced geometry 174 (of 210) >>
	<< Calculating gradient on displaced geometry 175 (of 210) >>
	<< Calculating gradient on displaced geometry 176 (of 210) >>
	<< Calculating gradient on displaced geometry 177 (of 210) >>
	<< Calculating gradient on displaced geometry 178 (of 210) >>
	<< Calculating gradient on displaced geometry 179 (of 210) >>
	<< Calculating gradient on displaced geometry 180 (of 210) >>
	<< Calculating gradient on displaced geometry 181 (of 210) >>
	<< Calculating gradient on displaced geometry 182 (of 210) >>
	<< Calculating gradient on displaced geometry 183 (of 210) >>
	<< Calculating gradient on displaced geometry 184 (of 210) >>
	<< Calculating gradient on displaced geometry 185 (of 210) >>
	<< Calculating gradient on displaced geometry 186 (of 210) >>
	<< Calculating gradient on displaced geometry 187 (of 210) >>
	<< Calculating gradient on displaced geometry 188 (of 210) >>
	<< Calculating gradient on displaced geometry 189 (of 210) >>
	<< Calculating gradient on displaced geometry 190 (of 210) >>
	<< Calculating gradient on displaced geometry 191 (of 210) >>
	<< Calculating gradient on displaced geometry 192 (of 210) >>
	<< Calculating gradient on displaced geometry 193 (of 210) >>
	<< Calculating gradient on displaced geometry 194 (of 210) >>
	<< Calculating gradient on displaced geometry 195 (of 210) >>
	<< Calculating gradient on displaced geometry 196 (of 210) >>
	<< Calculating gradient on displaced geometry 197 (of 210) >>
	<< Calculating gradient on displaced geometry 198 (of 210) >>
	<< Calculating gradient on displaced geometry 199 (of 210) >>
	<< Calculating gradient on displaced geometry 200 (of 210) >>
	<< Calculating gradient on displaced geometry 201 (of 210) >>
	<< Calculating gradient on displaced geometry 202 (of 210) >>
	<< Calculating gradient on displaced geometry 203 (of 210) >>
	<< Calculating gradient on displaced geometry 204 (of 210) >>
	<< Calculating gradient on displaced geometry 205 (of 210) >>
	<< Calculating gradient on displaced geometry 206 (of 210) >>
	<< Calculating gradient on displaced geometry 207 (of 210) >>
	<< Calculating gradient on displaced geometry 208 (of 210) >>
	<< Calculating gradient on displaced geometry 209 (of 210) >>
	<< Calculating gradient on displaced geometry 210 (of 210) >>

-----------------------
VIBRATIONAL FREQUENCIES
-----------------------

Scaling factor for frequencies =  1.000000000  (already applied!)

     0:       0.00 cm**-1
     1:       0.00 cm**-1
     2:       0.00 cm**-1
     3:       0.00 cm**-1
     4:       0.00 cm**-1
     5:       0.00 cm**-1
     6:      -8.36 cm**-1  ***imaginary mode***
     7:      38.28 cm**-1
     8:      40.12 cm**-1
     9:      64.58 cm**-1
    10:      80.15 cm**-1
    11:     101.35 cm**-1
    12:     106.53 cm**-1
    13:     141.78 cm**-1
    14:     153.60 cm**-1
    15:     200.64 cm**-1
    16:     218.49 cm**-1
    17:     241.55 cm**-1
    18:     256.08 cm**-1
    19:     262.49 cm**-1
    20:     332.95 cm**-1
    21:     334.75 cm**-1
    22:     387.36 cm**-1
    23:     410.06 cm**-1
    24:     454.16 cm**-1
    25:     463.87 cm**-1
    26:     473.29 cm**-1
    27:     488.20 cm**-1
    28:     496.30 cm**-1
    29:     504.87 cm**-1
    30:     543.45 cm**-1
    31:     555.37 cm**-1
    32:     595.57 cm**-1
    33:     604.55 cm**-1
    34:     632.49 cm**-1
    35:     661.13 cm**-1
    36:     692.26 cm**-1
    37:     693.95 cm**-1
    38:     715.88 cm**-1
    39:     745.45 cm**-1
    40:     754.96 cm**-1
    41:     785.75 cm**-1
    42:     800.22 cm**-1
    43:     822.07 cm**-1
    44:     842.13 cm**-1
    45:     851.00 cm**-1
    46:     869.40 cm**-1
    47:     925.64 cm**-1
    48:     941.77 cm**-1
    49:     957.39 cm**-1
    50:     968.65 cm**-1
    51:     976.91 cm**-1
    52:    1010.38 cm**-1
    53:    1034.61 cm**-1
    54:    1070.20 cm**-1
    55:    1074.77 cm**-1
    56:    1092.66 cm**-1
    57:    1112.78 cm**-1
    58:    1125.35 cm**-1
    59:    1129.39 cm**-1
    60:    1154.98 cm**-1
    61:    1173.75 cm**-1
    62:    1189.72 cm**-1
    63:    1205.25 cm**-1
    64:    1224.03 cm**-1
    65:    1234.19 cm**-1
    66:    1255.25 cm**-1
    67:    1271.02 cm**-1
    68:    1287.48 cm**-1
    69:    1352.96 cm**-1
    70:    1367.29 cm**-1
    71:    1384.66 cm**-1
    72:    1399.54 cm**-1
    73:    1413.95 cm**-1
    74:    1440.80 cm**-1
    75:    1446.87 cm**-1
    76:    1458.82 cm**-1
    77:    1463.09 cm**-1
    78:    1474.54 cm**-1
    79:    1484.30 cm**-1
    80:    1488.93 cm**-1
    81:    1489.80 cm**-1
    82:    1511.60 cm**-1
    83:    1517.51 cm**-1
    84:    1525.96 cm**-1
    85:    1571.85 cm**-1
    86:    1579.09 cm**-1
    87:    1612.69 cm**-1
    88:    1626.35 cm**-1
    89:    1761.61 cm**-1
    90:    3039.42 cm**-1
    91:    3043.35 cm**-1
    92:    3097.73 cm**-1
    93:    3104.31 cm**-1
    94:    3175.20 cm**-1
    95:    3182.05 cm**-1
    96:    3206.15 cm**-1
    97:    3214.13 cm**-1
    98:    3217.16 cm**-1
    99:    3220.87 cm**-1
   100:    3227.39 cm**-1
   101:    3232.85 cm**-1
   102:    3237.64 cm**-1
   103:    3242.68 cm**-1
   104:    3640.86 cm**-1


------------
NORMAL MODES
------------

These modes are the Cartesian displacements weighted by the diagonal matrix
M(i,i)=1/sqrt(m[i]) where m[i] is the mass of the displaced atom
Thus, these vectors are normalized but *not* orthogonal

                  0          1          2          3          4          5    
      0       0.000000   0.000000   0.000000   0.000000   0.000000   0.000000
      1       0.000000   0.000000   0.000000   0.000000   0.000000   0.000000
      2       0.000000   0.000000   0.000000   0.000000   0.000000   0.000000
      3       0.000000   0.000000   0.000000   0.000000   0.000000   0.000000
      4       0.000000   0.000000   0.000000   0.000000   0.000000   0.000000
      5       0.000000   0.000000   0.000000   0.000000   0.000000   0.000000
      6       0.000000   0.000000   0.000000   0.000000   0.000000   0.000000
      7       0.000000   0.000000   0.000000   0.000000   0.000000   0.000000
      8       0.000000   0.000000   0.000000   0.000000   0.000000   0.000000
      9       0.000000   0.000000   0.000000   0.000000   0.000000   0.000000
     10       0.000000   0.000000   0.000000   0.000000   0.000000   0.000000
     11       0.000000   0.000000   0.000000   0.000000   0.000000   0.000000
     12       0.000000   0.000000   0.000000   0.000000   0.000000   0.000000
     13       0.000000   0.000000   0.000000   0.000000   0.000000   0.000000
     14       0.000000   0.000000   0.000000   0.000000   0.000000   0.000000
     15       0.000000   0.000000   0.000000   0.000000   0.000000   0.000000
     16       0.000000   0.000000   0.000000   0.000000   0.000000   0.000000
     17       0.000000   0.000000   0.000000   0.000000   0.000000   0.000000
     18       0.000000   0.000000   0.000000   0.000000   0.000000   0.000000
     19       0.000000   0.000000   0.000000   0.000000   0.000000   0.000000
     20       0.000000   0.000000   0.000000   0.000000   0.000000   0.000000
     21       0.000000   0.000000   0.000000   0.000000   0.000000   0.000000
     22       0.000000   0.000000   0.000000   0.000000   0.000000   0.000000
     23       0.000000   0.000000   0.000000   0.000000   0.000000   0.000000
     24       0.000000   0.000000   0.000000   0.000000   0.000000   0.000000
     25       0.000000   0.000000   0.000000   0.000000   0.000000   0.000000
     26       0.000000   0.000000   0.000000   0.000000   0.000000   0.000000
     27       0.000000   0.000000   0.000000   0.000000   0.000000   0.000000
     28       0.000000   0.000000   0.000000   0.000000   0.000000   0.000000
     29       0.000000   0.000000   0.000000   0.000000   0.000000   0.000000
     30       0.000000   0.000000   0.000000   0.000000   0.000000   0.000000
     31       0.000000   0.000000   0.000000   0.000000   0.000000   0.000000
     32       0.000000   0.000000   0.000000   0.000000   0.000000   0.000000
     33       0.000000   0.000000   0.000000   0.000000   0.000000   0.000000
     34       0.000000   0.000000   0.000000   0.000000   0.000000   0.000000
     35       0.000000   0.000000   0.000000   0.000000   0.000000   0.000000
     36       0.000000   0.000000   0.000000   0.000000   0.000000   0.000000
     37       0.000000   0.000000   0.000000   0.000000   0.000000   0.000000
     38       0.000000   0.000000   0.000000   0.000000   0.000000   0.000000
     39       0.000000   0.000000   0.000000   0.000000   0.000000   0.000000
     40       0.000000   0.000000   0.000000   0.000000   0.000000   0.000000
     41       0.000000   0.000000   0.000000   0.000000   0.000000   0.000000
     42       0.000000   0.000000   0.000000   0.000000   0.000000   0.000000
     43       0.000000   0.000000   0.000000   0.000000   0.000000   0.000000
     44       0.000000   0.000000   0.000000   0.000000   0.000000   0.000000
     45       0.000000   0.000000   0.000000   0.000000   0.000000   0.000000
     46       0.000000   0.000000   0.000000   0.000000   0.000000   0.000000
     47       0.000000   0.000000   0.000000   0.000000   0.000000   0.000000
     48       0.000000   0.000000   0.000000   0.000000   0.000000   0.000000
     49       0.000000   0.000000   0.000000   0.000000   0.000000   0.000000
     50       0.000000   0.000000   0.000000   0.000000   0.000000   0.000000
     51       0.000000   0.000000   0.000000   0.000000   0.000000   0.000000
     52       0.000000   0.000000   0.000000   0.000000   0.000000   0.000000
     53       0.000000   0.000000   0.000000   0.000000   0.000000   0.000000
     54       0.000000   0.000000   0.000000   0.000000   0.000000   0.000000
     55       0.000000   0.000000   0.000000   0.000000   0.000000   0.000000
     56       0.000000   0.000000   0.000000   0.000000   0.000000   0.000000
     57       0.000000   0.000000   0.000000   0.000000   0.000000   0.000000
     58       0.000000   0.000000   0.000000   0.000000   0.000000   0.000000
     59       0.000000   0.000000   0.000000   0.000000   0.000000   0.000000
     60       0.000000   0.000000   0.000000   0.000000   0.000000   0.000000
     61       0.000000   0.000000   0.000000   0.000000   0.000000   0.000000
     62       0.000000   0.000000   0.000000   0.000000   0.000000   0.000000
     63       0.000000   0.000000   0.000000   0.000000   0.000000   0.000000
     64       0.000000   0.000000   0.000000   0.000000   0.000000   0.000000
     65       0.000000   0.000000   0.000000   0.000000   0.000000   0.000000
     66       0.000000   0.000000   0.000000   0.000000   0.000000   0.000000
     67       0.000000   0.000000   0.000000   0.000000   0.000000   0.000000
     68       0.000000   0.000000   0.000000   0.000000   0.000000   0.000000
     69       0.000000   0.000000   0.000000   0.000000   0.000000   0.000000
     70       0.000000   0.000000   0.000000   0.000000   0.000000   0.000000
     71       0.000000   0.000000   0.000000   0.000000   0.000000   0.000000
     72       0.000000   0.000000   0.000000   0.000000   0.000000   0.000000
     73       0.000000   0.000000   0.000000   0.000000   0.000000   0.000000
     74       0.000000   0.000000   0.000000   0.000000   0.000000   0.000000
     75       0.000000   0.000000   0.000000   0.000000   0.000000   0.000000
     76       0.000000   0.000000   0.000000   0.000000   0.000000   0.000000
     77       0.000000   0.000000   0.000000   0.000000   0.000000   0.000000
     78       0.000000   0.000000   0.000000   0.000000   0.000000   0.000000
     79       0.000000   0.000000   0.000000   0.000000   0.000000   0.000000
     80       0.000000   0.000000   0.000000   0.000000   0.000000   0.000000
     81       0.000000   0.000000   0.000000   0.000000   0.000000   0.000000
     82       0.000000   0.000000   0.000000   0.000000   0.000000   0.000000
     83       0.000000   0.000000   0.000000   0.000000   0.000000   0.000000
     84       0.000000   0.000000   0.000000   0.000000   0.000000   0.000000
     85       0.000000   0.000000   0.000000   0.000000   0.000000   0.000000
     86       0.000000   0.000000   0.000000   0.000000   0.000000   0.000000
     87       0.000000   0.000000   0.000000   0.000000   0.000000   0.000000
     88       0.000000   0.000000   0.000000   0.000000   0.000000   0.000000
     89       0.000000   0.000000   0.000000   0.000000   0.000000   0.000000
     90       0.000000   0.000000   0.000000   0.000000   0.000000   0.000000
     91       0.000000   0.000000   0.000000   0.000000   0.000000   0.000000
     92       0.000000   0.000000   0.000000   0.000000   0.000000   0.000000
     93       0.000000   0.000000   0.000000   0.000000   0.000000   0.000000
     94       0.000000   0.000000   0.000000   0.000000   0.000000   0.000000
     95       0.000000   0.000000   0.000000   0.000000   0.000000   0.000000
     96       0.000000   0.000000   0.000000   0.000000   0.000000   0.000000
     97       0.000000   0.000000   0.000000   0.000000   0.000000   0.000000
     98       0.000000   0.000000   0.000000   0.000000   0.000000   0.000000
     99       0.000000   0.000000   0.000000   0.000000   0.000000   0.000000
    100       0.000000   0.000000   0.000000   0.000000   0.000000   0.000000
    101       0.000000   0.000000   0.000000   0.000000   0.000000   0.000000
    102       0.000000   0.000000   0.000000   0.000000   0.000000   0.000000
    103       0.000000   0.000000   0.000000   0.000000   0.000000   0.000000
    104       0.000000   0.000000   0.000000   0.000000   0.000000   0.000000
                  6          7          8          9         10         11    
      0      -0.024277  -0.005433  -0.009007  -0.009210  -0.007546   0.028546
      1       0.078282   0.067865  -0.014866   0.012330   0.011497  -0.057176
      2      -0.147095   0.056251  -0.041125  -0.026853  -0.019972   0.149569
      3      -0.006872  -0.022624   0.002908  -0.014331  -0.021866  -0.001932
      4       0.053176   0.022085  -0.009234   0.021929   0.041016  -0.031263
      5      -0.104728   0.114076  -0.044285  -0.044473  -0.070050   0.099582
      6       0.019004  -0.025221   0.014770  -0.006264  -0.017056  -0.037467
      7      -0.005219  -0.013254  -0.020168   0.000543   0.029161   0.043395
      8      -0.004744   0.110798  -0.002697  -0.013176  -0.050954  -0.044787
      9      -0.017038   0.012774  -0.008009   0.003112   0.004998   0.015208
     10       0.053915   0.066974  -0.033480  -0.015523  -0.019220  -0.003955
     11      -0.098217   0.016338   0.001627   0.014753   0.030331   0.040715
     12       0.001958   0.017152  -0.007180   0.002507   0.000135  -0.019701
     13       0.015507   0.021801  -0.024420  -0.020766  -0.015252   0.056801
     14      -0.036544   0.027578   0.013691   0.019614   0.024344  -0.078543
     15      -0.009095   0.018736  -0.011794   0.011794   0.004238   0.025694
     16       0.052037   0.121234  -0.063103  -0.039689  -0.052822  -0.033778
     17      -0.089069  -0.052155   0.036967   0.050424   0.077276   0.089136
     18       0.023303  -0.008899   0.009320   0.002148  -0.005328  -0.034987
     19      -0.025528  -0.007511  -0.024318  -0.018684  -0.001319   0.061584
     20       0.030556   0.056615   0.020833   0.016042  -0.000220  -0.094198
     21       0.051636  -0.019301   0.015794   0.004981  -0.003816  -0.033188
     22      -0.089377  -0.029834  -0.017249  -0.025303  -0.007045   0.046983
     23       0.140527   0.027093   0.041877   0.028016   0.009941  -0.084386
     24       0.057915  -0.005484   0.000471   0.002866  -0.000926   0.000702
     25      -0.108702  -0.022259   0.000879  -0.020825  -0.013166  -0.023019
     26       0.170882  -0.030412   0.036585   0.022081   0.021122   0.021407
     27       0.004113   0.038934  -0.022866   0.000281   0.000491  -0.022803
     28       0.009769   0.007119  -0.006031  -0.015383  -0.014664   0.069642
     29      -0.027247   0.003767   0.008952   0.012429   0.023567  -0.112820
     30       0.032787   0.024881  -0.020894  -0.002109  -0.002482   0.011107
     31      -0.051569  -0.005496   0.011371  -0.008385  -0.008721  -0.023258
     32       0.078825  -0.041320   0.012221   0.002963   0.014573   0.027297
     33      -0.026141   0.077220  -0.045845  -0.004541  -0.002250  -0.059510
     34       0.077238   0.001424   0.004765  -0.006035  -0.010173   0.152382
     35      -0.132550   0.029663  -0.016267  -0.001837   0.015015  -0.250485
     36      -0.031956   0.096341  -0.066224  -0.015739  -0.011702  -0.023150
     37       0.089709  -0.002986   0.036016   0.022768   0.015150   0.064514
     38      -0.146047  -0.011537  -0.042455  -0.047082  -0.024729  -0.110796
     39      -0.004961   0.076937  -0.064429  -0.020107  -0.015657   0.032791
     40       0.023724  -0.000444   0.054835   0.034336   0.024230  -0.082266
     41      -0.038610  -0.076593  -0.043424  -0.064655  -0.039256   0.116956
     42       0.027320   0.041522  -0.041388  -0.011473  -0.008835   0.047284
     43      -0.052307  -0.002575   0.041447   0.015086   0.007746  -0.118400
     44       0.082800  -0.090344  -0.014229  -0.033743  -0.013211   0.174928
     45      -0.046922  -0.010545   0.023995   0.045516   0.031239   0.044762
     46       0.010711   0.076208   0.000736   0.020274  -0.012884  -0.012892
     47       0.014004  -0.053732   0.006243   0.018035   0.026889   0.031612
     48      -0.120518   0.089202   0.058815   0.080589   0.089318   0.115595
     49       0.027831   0.216392   0.062414   0.053504   0.020718   0.014694
     50       0.049303  -0.105745  -0.010708  -0.000053  -0.004061  -0.004076
     51       0.005484  -0.128391   0.023459   0.028087  -0.033345  -0.021140
     52      -0.044504  -0.144606  -0.016002   0.036279  -0.052276  -0.039700
     53       0.065899   0.006122   0.014652   0.002968   0.019766   0.014927
     54      -0.028846  -0.127228   0.121110   0.000075  -0.019235   0.002573
     55      -0.087625  -0.140194   0.132436  -0.009620  -0.035944  -0.010478
     56       0.170304   0.035161  -0.006857  -0.022912  -0.036015  -0.049814
     57       0.109322  -0.121315  -0.001878  -0.092398   0.005728  -0.082650
     58      -0.031478  -0.222874  -0.127069  -0.037505   0.081192  -0.054972
     59       0.011148   0.001742   0.029193   0.061546   0.002696   0.045726
     60       0.150492  -0.299564  -0.302634   0.232261  -0.041339  -0.100542
     61       0.008948  -0.407264  -0.436141   0.295233   0.034056  -0.072514
     62      -0.062655   0.032240   0.123529  -0.062864   0.081129   0.079495
     63       0.182302  -0.173656  -0.110295  -0.063113   0.014865  -0.124190
     64      -0.083261  -0.015332   0.242561  -0.544099   0.229073  -0.037189
     65       0.065503   0.013498   0.037173  -0.062599   0.054732   0.011344
     66       0.075238   0.111235   0.380888  -0.530529   0.074789  -0.068812
     67      -0.011688  -0.315609  -0.277185   0.094532   0.081832  -0.065627
     68      -0.007421  -0.042129  -0.061215   0.341245  -0.133362   0.066745
     69      -0.130642  -0.186167   0.220329   0.079834  -0.263027   0.035239
     70      -0.128963  -0.202093   0.304032   0.071582  -0.482779  -0.033160
     71       0.209327   0.057617  -0.044997  -0.053463   0.057864  -0.062329
     72      -0.033741  -0.115726   0.213015  -0.061339   0.054623   0.013747
     73      -0.071688  -0.118008   0.068730  -0.032963   0.106378  -0.004549
     74       0.123720  -0.039169   0.137461   0.092234  -0.539074  -0.075512
     75       0.058354  -0.081655  -0.000987  -0.039347   0.147322  -0.030720
     76      -0.100378  -0.106910   0.141962  -0.099354   0.262634   0.029173
     77       0.256927   0.103660  -0.133103  -0.121019   0.331309  -0.061305
     78       0.033235  -0.039569   0.025168  -0.008550  -0.023318  -0.060494
     79      -0.037195  -0.043536  -0.022135   0.001375   0.045117   0.072642
     80       0.049229   0.146001   0.005833  -0.016194  -0.078047  -0.100640
     81      -0.044066  -0.009330  -0.017346  -0.013958  -0.007737   0.065066
     82       0.110137   0.110114  -0.008915   0.023115   0.009893  -0.112887
     83      -0.212797   0.039687  -0.066018  -0.042947  -0.020191   0.272504
     84      -0.014413  -0.035865   0.003995  -0.023985  -0.034821   0.007729
     85       0.071722   0.021291   0.000309   0.042297   0.069222  -0.063426
     86      -0.138798   0.150299  -0.074008  -0.076654  -0.115319   0.164944
     87       0.068333  -0.041185   0.032649   0.007393  -0.005111  -0.044223
     88      -0.127278  -0.049568  -0.020802  -0.028661  -0.001702   0.060155
     89       0.203481   0.044884   0.055196   0.034108   0.001675  -0.110528
     90       0.079731  -0.016254   0.004071   0.003844  -0.000128   0.016725
     91      -0.160386  -0.032169   0.009368  -0.022211  -0.015818  -0.077293
     92       0.260671  -0.062095   0.045933   0.025218   0.024961   0.093400
     93      -0.059527   0.127854  -0.084121  -0.021150  -0.016121  -0.039065
     94       0.152201  -0.005867   0.042744   0.034927   0.026036   0.115555
     95      -0.246558   0.011547  -0.061962  -0.066948  -0.042506  -0.190069
     96      -0.008698   0.090132  -0.081191  -0.030182  -0.023827   0.064836
     97       0.032281   0.000218   0.080065   0.057912   0.043861  -0.158519
     98      -0.051132  -0.110986  -0.066386  -0.100944  -0.070296   0.234660
     99       0.049621   0.027515  -0.039738  -0.013814  -0.011296   0.085780
    100      -0.105413  -0.005430   0.057279   0.021956   0.013385  -0.217898
    101       0.171599  -0.132257  -0.015244  -0.043872  -0.022738   0.331407
    102      -0.045738   0.087058  -0.041479   0.001587   0.001057  -0.074195
    103       0.122673   0.009866  -0.025340  -0.022218  -0.018287   0.193459
    104      -0.205414   0.062639   0.007686   0.023651   0.027296  -0.309078
                 12         13         14         15         16         17    
      0      -0.001595   0.014766   0.008303  -0.017075  -0.074024  -0.017683
      1      -0.039238  -0.004641  -0.070999   0.055325   0.134714  -0.025611
      2      -0.024418   0.028505   0.092858  -0.188323  -0.048476   0.020882
      3       0.037414   0.010563   0.004608   0.053189  -0.113697  -0.028056
      4      -0.086632   0.005051  -0.060520  -0.038164   0.114974   0.012764
      5       0.061917   0.016130   0.077142  -0.021580  -0.032458  -0.033077
      6       0.043803  -0.000132  -0.027493   0.092991  -0.078188  -0.019875
      7      -0.081977   0.034659   0.021136  -0.114953  -0.019677   0.028361
      8       0.078104  -0.022878  -0.057540   0.146904   0.124504  -0.003781
      9      -0.017679   0.002713  -0.002502  -0.019830   0.018870  -0.011977
     10      -0.016386   0.018944  -0.032103   0.004828   0.010940  -0.036967
     11      -0.049559  -0.000542   0.013050  -0.037350   0.041980   0.043599
     12      -0.012939   0.009177  -0.002841   0.010114   0.011442  -0.007566
     13      -0.009056   0.022561  -0.033119  -0.017256  -0.048517  -0.008072
     14      -0.036560   0.003813   0.020213   0.027650   0.116291   0.073199
     15      -0.012956  -0.017844   0.008176  -0.051544   0.093546  -0.033223
     16      -0.010909   0.039768   0.026543  -0.066567   0.062083  -0.026268
     17      -0.057009  -0.040301  -0.071587   0.055828  -0.020968  -0.009832
     18       0.014660  -0.001229  -0.024480   0.032939  -0.030970  -0.016089
     19      -0.028588   0.033901   0.030694  -0.026779  -0.058394   0.003682
     20       0.006612  -0.017602  -0.073019   0.043877   0.131144   0.059546
     21       0.014758  -0.002315  -0.034916  -0.004324  -0.072681  -0.028558
     22       0.004828   0.020449   0.084297   0.067721   0.030324   0.018306
     23      -0.005424  -0.019641  -0.132344  -0.114423  -0.023082   0.022067
     24      -0.011594   0.015747  -0.012545  -0.010231  -0.095056  -0.035397
     25       0.044456  -0.012071   0.016397   0.085560   0.085520   0.026410
     26      -0.038022   0.011092  -0.001714  -0.159689  -0.107249  -0.003129
     27      -0.034778   0.028487   0.004198   0.026172  -0.018229  -0.013311
     28       0.012434  -0.002872  -0.075825  -0.028963   0.005630   0.025712
     29      -0.039741   0.027717   0.112983   0.028869   0.064308   0.039224
     30      -0.029970   0.029945   0.012584   0.029818  -0.037101  -0.022243
     31       0.034317  -0.020519  -0.069621  -0.028357   0.017806   0.018148
     32      -0.032178   0.029553   0.136612   0.018386   0.025279   0.012522
     33      -0.056465   0.052684   0.004790   0.034224  -0.032712   0.015297
     34       0.003633  -0.010670  -0.109979  -0.009616   0.074745   0.073077
     35      -0.036861   0.053155   0.164359   0.003755  -0.034499  -0.007641
     36      -0.054796   0.047673  -0.090770   0.024219  -0.026268   0.058893
     37      -0.037368   0.033335   0.092411   0.043002   0.062506   0.033731
     38       0.061951  -0.044099  -0.130540  -0.101764  -0.022879   0.006915
     39      -0.046287   0.043143  -0.078732   0.048747  -0.006289   0.056659
     40      -0.024991   0.022133   0.090142  -0.024847  -0.006367  -0.006084
     41       0.086034  -0.056898  -0.092903  -0.006925   0.066516   0.010775
     42      -0.040778   0.042913   0.001093   0.065115  -0.017981   0.007072
     43       0.027803  -0.028298  -0.065629  -0.093848  -0.014889  -0.000835
     44       0.013606   0.016221   0.167252   0.103407   0.069937  -0.016899
     45       0.010461  -0.065224   0.017670  -0.038975   0.088053  -0.045141
     46       0.045639  -0.041486   0.046763  -0.004221  -0.037335  -0.074568
     47      -0.028990   0.001061  -0.061108   0.057022  -0.044459  -0.030227
     48       0.014294  -0.118895   0.025936  -0.024594   0.058734   0.023180
     49       0.126266  -0.105947   0.098330   0.047588  -0.182487   0.024765
     50      -0.032329   0.029304  -0.065096   0.048972  -0.027950  -0.067333
     51       0.036976  -0.035140   0.047308  -0.076207   0.134069  -0.111724
     52       0.005787  -0.009300   0.013708  -0.019881   0.034830  -0.229479
     53       0.006697  -0.001446  -0.032088   0.054599  -0.075940   0.021311
     54       0.063834   0.071155   0.004829  -0.043139   0.066752   0.077119
     55       0.050242   0.152471  -0.046701   0.036461  -0.088456   0.058617
     56       0.055919  -0.031103   0.060410  -0.015067  -0.054827   0.011886
     57       0.057954  -0.098896   0.114416  -0.087907   0.088499   0.097725
     58      -0.037371  -0.137509   0.003197   0.088817  -0.141045   0.027126
     59      -0.004579   0.027025  -0.065389   0.061267  -0.052140  -0.082965
     60       0.223709  -0.026931   0.148031  -0.109239   0.055341   0.344786
     61       0.131609  -0.064942   0.038461   0.066402  -0.174446   0.283885
     62      -0.119000  -0.050969  -0.124365   0.142802  -0.115208  -0.164608
     63       0.120456  -0.116364   0.164596  -0.100232   0.047670   0.301880
     64      -0.297751  -0.319191  -0.051361   0.189851  -0.209106  -0.164946
     65      -0.023411  -0.043404  -0.034295   0.079979  -0.111809   0.054457
     66      -0.149646  -0.200719   0.082104  -0.062911   0.122200  -0.187026
     67       0.028475  -0.129112   0.016856   0.099716  -0.188530   0.187058
     68       0.115024   0.190437  -0.062882  -0.033319   0.084752  -0.219096
     69      -0.181649  -0.112178  -0.019131   0.036280  -0.008037   0.183491
     70      -0.254829  -0.117358   0.014128   0.093458  -0.233478   0.312308
     71       0.150163   0.039528   0.069252  -0.044889  -0.026617  -0.029743
     72       0.165689   0.264480  -0.040875  -0.017543  -0.016660   0.313039
     73       0.144456   0.226294  -0.061892   0.014590  -0.034483  -0.044018
     74      -0.310751  -0.393650   0.138935   0.037966  -0.173699   0.187357
     75       0.221228   0.136218   0.046193  -0.117735   0.160946  -0.107293
     76       0.276357   0.467510  -0.143677   0.050283  -0.099187   0.152848
     77       0.369117   0.237766   0.044294  -0.087671   0.041301  -0.129268
     78       0.066363  -0.001512  -0.046427   0.156457  -0.093542  -0.010047
     79      -0.114247   0.050294   0.063122  -0.201557  -0.061737   0.062759
     80       0.138291  -0.045330  -0.128996   0.309030   0.177935  -0.045597
     81      -0.013892   0.022320   0.021857  -0.068903  -0.090917  -0.018118
     82      -0.023536  -0.022206  -0.086032   0.123851   0.232021  -0.024675
     83      -0.059840   0.052857   0.137834  -0.358925  -0.131846   0.020344
     84       0.059751   0.016726   0.021949   0.068021  -0.163330  -0.030487
     85      -0.122687  -0.006311  -0.095492  -0.053347   0.192458   0.037169
     86       0.104635   0.033015   0.131599  -0.017937  -0.118731  -0.093068
     87       0.037345  -0.018138  -0.050710  -0.032383  -0.090210  -0.040591
     88      -0.001582   0.027617   0.157170   0.112936   0.081940   0.033422
     89       0.015089  -0.037445  -0.245157  -0.191229  -0.103736  -0.004510
     90      -0.012392   0.016038  -0.018003  -0.043386  -0.136799  -0.046125
     91       0.070589  -0.024287   0.040165   0.170332   0.170300   0.046994
     92      -0.050197   0.015780  -0.030440  -0.297492  -0.271329  -0.043325
     93      -0.061213   0.049626  -0.163207   0.003694  -0.036398   0.087854
     94      -0.076654   0.072326   0.220697   0.128334   0.102145   0.044649
     95       0.111600  -0.096114  -0.349076  -0.231002  -0.083132   0.009208
     96      -0.043706   0.038173  -0.137133   0.043706   0.011557   0.085687
     97      -0.055617   0.052107   0.217852  -0.004595  -0.033575  -0.037770
     98       0.159428  -0.122952  -0.281106  -0.047989   0.093084   0.022034
     99      -0.036037   0.042457   0.019587   0.078023  -0.016079  -0.005957
    100       0.047009  -0.051913  -0.090753  -0.147619  -0.030802  -0.025840
    101       0.020842   0.022960   0.229559   0.159549   0.080689  -0.046765
    102      -0.056674   0.047033  -0.024262   0.029791  -0.033750   0.013755
    103      -0.022738   0.021872  -0.055576   0.016972   0.106112   0.133204
    104      -0.031113   0.030585   0.050299  -0.013575  -0.061798  -0.038024
                 18         19         20         21         22         23    
      0       0.018340  -0.067402   0.038867   0.014132  -0.045476  -0.061373
      1      -0.147137  -0.042756  -0.033145  -0.131272   0.027269  -0.056140
      2       0.041821  -0.115475   0.097833   0.047863   0.037982  -0.003502
      3       0.041612  -0.005724  -0.016261   0.009013  -0.070360  -0.190727
      4      -0.034182  -0.123957   0.079927  -0.058221   0.042019  -0.101714
      5      -0.114282   0.031842  -0.089795  -0.081741   0.033511  -0.018715
      6       0.053367   0.001538   0.004923   0.007580  -0.056899  -0.188359
      7       0.035724  -0.030598   0.009472  -0.013905   0.042307  -0.122215
      8      -0.080606   0.063419  -0.003746  -0.094822   0.048354  -0.041190
      9      -0.032827  -0.090934   0.015282  -0.013618  -0.012659   0.013593
     10      -0.119870   0.003143   0.006926  -0.059395  -0.014678  -0.069149
     11       0.124456  -0.125094   0.032141  -0.033506   0.034363  -0.069956
     12       0.002078  -0.112566  -0.015456  -0.021125   0.015325   0.035500
     13      -0.071805   0.155539   0.064332  -0.042298   0.026601  -0.053120
     14       0.174396  -0.129628  -0.105069   0.019467  -0.001528  -0.044603
     15      -0.114002  -0.065323  -0.018058   0.076297  -0.115399   0.009269
     16      -0.094892  -0.148282  -0.016923   0.100248  -0.122378  -0.065408
     17       0.031260   0.059675   0.051441  -0.176209   0.071769  -0.066072
     18       0.027956  -0.092678   0.029817   0.008701  -0.010956  -0.082915
     19      -0.017521   0.114004  -0.046025  -0.068975   0.025897  -0.123237
     20       0.106276  -0.068631   0.066516   0.058285   0.014927  -0.033364
     21       0.002000  -0.072959   0.052087   0.005114   0.006581  -0.041840
     22       0.037642   0.025384  -0.117785  -0.044965   0.010557  -0.021630
     23       0.007359   0.061052   0.168770   0.075947   0.022911   0.017679
     24      -0.007231  -0.081731  -0.019718  -0.078515   0.067824  -0.005059
     25       0.041485  -0.004629   0.075412   0.071527  -0.011591   0.016476
     26      -0.026413   0.111864  -0.144489  -0.037369  -0.028893  -0.006769
     27      -0.003111  -0.089019  -0.018400  -0.074975   0.083550   0.112399
     28      -0.004708   0.135593   0.075150   0.036713  -0.011407  -0.012742
     29       0.066797  -0.003851  -0.148947   0.026323  -0.059418  -0.028284
     30      -0.010360  -0.091664  -0.025604  -0.094855   0.111351   0.146796
     31      -0.000418   0.050599   0.091073   0.043450   0.021480   0.078548
     32       0.014647   0.026047  -0.168878  -0.013217  -0.042776   0.028533
     33       0.022008   0.072129   0.033054   0.003079   0.044859   0.116590
     34       0.113207   0.084737  -0.112381   0.056003  -0.061507   0.017924
     35      -0.087743   0.170461   0.138324   0.059537  -0.024960  -0.041829
     36       0.101773   0.164729  -0.038328   0.048391  -0.024436   0.045799
     37       0.025562   0.080149   0.037966   0.061067  -0.012738   0.079248
     38      -0.024613   0.032456  -0.082138  -0.020312  -0.007300   0.051140
     39       0.106834   0.128071  -0.008634   0.049481  -0.004510   0.071301
     40      -0.041629   0.027947  -0.019871  -0.015746   0.044580   0.190028
     41       0.004853  -0.068417   0.028014   0.012637   0.032525   0.103519
     42       0.030746   0.012367   0.035745  -0.029560   0.073831   0.106927
     43      -0.019457  -0.050568  -0.078241  -0.045414   0.060170   0.182000
     44      -0.051248  -0.005187   0.129924   0.024789   0.033274   0.085625
     45      -0.072766   0.046894  -0.022672   0.064251  -0.060090   0.013355
     46       0.051981  -0.039934   0.000455   0.022574  -0.016193  -0.030946
     47      -0.051412  -0.007729  -0.016120   0.043199   0.027755  -0.035986
     48      -0.070115   0.070924   0.034232  -0.094584  -0.142604  -0.009548
     49       0.071277  -0.044214  -0.029987   0.118798   0.131854  -0.000555
     50      -0.048769  -0.025865  -0.040439   0.109896   0.066130  -0.031879
     51       0.043559   0.091357  -0.031179   0.068332   0.032617   0.025481
     52       0.195824   0.047737   0.023079  -0.051331   0.018589  -0.011420
     53      -0.073983  -0.038173  -0.027328   0.081343   0.025175  -0.028548
     54      -0.091060   0.025441  -0.029336   0.062711  -0.005986   0.034732
     55       0.007785  -0.073421   0.040234  -0.090453  -0.059456  -0.001409
     56       0.114287  -0.026663   0.084664  -0.186705  -0.216584   0.099796
     57       0.000176   0.065958  -0.005557  -0.028327   0.153958  -0.116764
     58      -0.048029  -0.048309  -0.006699   0.043073  -0.090812   0.074378
     59      -0.057708  -0.024024  -0.043990   0.138600  -0.036898   0.041557
     60      -0.110257   0.031058   0.000974  -0.061052   0.168948  -0.139090
     61      -0.158116  -0.083380   0.002726   0.001328  -0.074588   0.050268
     62      -0.120013  -0.045703  -0.073894   0.246571  -0.229039   0.229771
     63      -0.058486   0.042322   0.012180  -0.098450   0.262953  -0.236054
     64      -0.037037  -0.056566  -0.032143   0.144133  -0.208409   0.190725
     65      -0.110067  -0.048979  -0.034394   0.101785   0.032032  -0.036741
     66       0.134287   0.108184  -0.011064   0.004395   0.174993  -0.127105
     67      -0.140247  -0.081384  -0.007731   0.040337  -0.113614   0.088967
     68       0.076003   0.036347  -0.028191   0.089735   0.018300   0.000743
     69      -0.264841   0.009590  -0.108927   0.248855   0.199716  -0.088142
     70      -0.066012  -0.135789   0.096670  -0.222734  -0.215677   0.071242
     71       0.179918  -0.021257   0.113560  -0.253979  -0.293084   0.147433
     72      -0.217972  -0.084125   0.009178  -0.029655  -0.150304   0.087180
     73       0.045437  -0.043658   0.020883  -0.043982  -0.002409  -0.026142
     74       0.074910  -0.050383   0.121718  -0.274065  -0.309298   0.147535
     75       0.105999   0.079303   0.020485  -0.055254  -0.114038   0.111731
     76      -0.124732  -0.139837   0.015310  -0.030963  -0.042752  -0.027083
     77       0.245998  -0.008465   0.123422  -0.278063  -0.323581   0.168524
     78       0.081726   0.117753  -0.006674   0.012368  -0.079393  -0.224757
     79       0.145173  -0.085724  -0.002504   0.072116   0.024891  -0.122516
     80      -0.220207   0.212480   0.007575  -0.212740   0.058744  -0.067855
     81       0.008041  -0.069149   0.076322   0.023392  -0.034685  -0.032033
     82      -0.198576  -0.053633  -0.114668  -0.177891   0.064427   0.029115
     83       0.027581  -0.114397   0.230130   0.091941   0.063726   0.070835
     84       0.054694   0.066480  -0.049639   0.004557  -0.063950  -0.244128
     85       0.007104  -0.233329   0.144296  -0.024717   0.040120  -0.068128
     86      -0.260701   0.146714  -0.180855  -0.162698   0.022820   0.011547
     87      -0.033930  -0.040660   0.097844   0.052090  -0.020466   0.038966
     88       0.088523  -0.044139  -0.241591  -0.048179  -0.014356   0.008848
     89      -0.081913   0.175760   0.370261   0.104910   0.044435   0.008665
     90      -0.027310  -0.048099  -0.037449  -0.092714   0.055861  -0.041846
     91       0.102900  -0.077612   0.118321   0.166324  -0.080901  -0.062508
     92      -0.108245   0.244885  -0.214605  -0.114065  -0.044473  -0.104046
     93       0.149923   0.249737  -0.085216   0.075738  -0.086328  -0.071103
     94       0.036265   0.118524   0.126950   0.111078  -0.030580   0.027009
     95      -0.010545   0.031676  -0.229994  -0.071393  -0.020216   0.054093
     96       0.151819   0.183097  -0.021669   0.094829  -0.050806   0.034518
     97      -0.100301   0.014838  -0.002988  -0.053826   0.079869   0.226995
     98       0.048270  -0.168358   0.016264   0.000491   0.056137   0.107403
     99       0.007562  -0.005117   0.093833  -0.034628   0.097032   0.119975
    100      -0.051934  -0.189614  -0.197071  -0.141164   0.116270   0.256583
    101      -0.109334  -0.006799   0.347221   0.044108   0.080574   0.089792
    102       0.033758   0.093190   0.004019   0.006634   0.024942   0.112771
    103       0.161367   0.182583  -0.076038   0.148780  -0.097304  -0.024897
    104      -0.068778   0.196913   0.042052   0.027340  -0.064361  -0.028547
                 24         25         26         27         28         29    
      0      -0.017447   0.094965   0.054365  -0.107713  -0.178178   0.034834
      1       0.055026  -0.024641  -0.028399   0.009494  -0.090656  -0.110645
      2      -0.065133  -0.028648   0.051170  -0.049946   0.073929  -0.072674
      3       0.039938   0.019776   0.003383  -0.006788  -0.062700   0.078750
      4      -0.080863  -0.074511   0.024663  -0.051919   0.046799  -0.122891
      5       0.174022  -0.057386  -0.047918   0.081431  -0.061842  -0.092327
      6      -0.034629  -0.010551   0.009082  -0.021125   0.010138   0.072932
      7       0.120702  -0.158168   0.000903   0.034718   0.034317   0.040304
      8      -0.131248  -0.092903   0.008877  -0.051002   0.079074  -0.002367
      9      -0.027829   0.034530   0.005729  -0.057028  -0.152947  -0.071716
     10       0.086787   0.045591   0.060597  -0.050692  -0.032632   0.024766
     11      -0.132836  -0.015419  -0.076201   0.031392  -0.047854   0.018711
     12       0.003745   0.001979  -0.009409  -0.022365  -0.106078  -0.061109
     13       0.007591  -0.029703   0.068907  -0.077680   0.007756   0.087624
     14       0.019618  -0.048806  -0.069173   0.055615  -0.095274   0.115783
     15      -0.039772   0.071514  -0.023687   0.029021   0.016333  -0.017692
     16      -0.043665   0.071536  -0.016025   0.034673   0.040308   0.111548
     17       0.024259   0.058704   0.006488  -0.020344  -0.050176  -0.053448
     18       0.002698  -0.042414  -0.006022   0.024499   0.040755  -0.153403
     19       0.020950  -0.106629  -0.012897  -0.015573   0.027002   0.133804
     20       0.014130  -0.058928   0.055566  -0.002278   0.011399   0.142839
     21       0.029497  -0.040069  -0.024879   0.058212   0.103519  -0.234364
     22      -0.087047  -0.056297  -0.026985   0.038602   0.101524   0.080492
     23       0.148685  -0.012248   0.042821   0.017998   0.057807   0.084144
     24      -0.021416  -0.075963  -0.041548   0.047728   0.100006  -0.035644
     25       0.059074   0.001380   0.030248   0.047432   0.119606  -0.095337
     26      -0.113340  -0.000276  -0.071794   0.028216   0.006829  -0.015522
     27       0.043400   0.002924   0.019437  -0.036519  -0.032130   0.097360
     28      -0.082788  -0.015737  -0.007219  -0.001406  -0.089136  -0.004395
     29       0.133312   0.034834   0.036085  -0.060835   0.002944  -0.064171
     30       0.017665  -0.010440   0.036089  -0.021421   0.039455   0.120023
     31      -0.022237   0.002602  -0.077338   0.062798  -0.026755   0.008957
     32       0.022449   0.050345   0.125150  -0.060475   0.112570  -0.079779
     33      -0.009776   0.030712  -0.042906   0.005825   0.013698   0.039659
     34      -0.000410   0.028278   0.068804  -0.000139  -0.077924  -0.090971
     35      -0.016851   0.011293  -0.108106  -0.051733  -0.037579  -0.039590
     36      -0.019888   0.025673   0.012592   0.023879   0.031345  -0.069262
     37       0.017601   0.051043  -0.058428  -0.026266  -0.110564  -0.033298
     38      -0.049605   0.031454   0.084079  -0.018805  -0.028409  -0.033402
     39       0.007773   0.025085  -0.038099   0.025179   0.044575  -0.048757
     40      -0.049811   0.056768   0.058731   0.032480   0.000729   0.006897
     41       0.057808   0.041524  -0.116005  -0.036341  -0.027778   0.041503
     42       0.003223  -0.019303   0.024741   0.023633   0.040975   0.078103
     43       0.015989   0.050652  -0.041967  -0.020099   0.025170   0.041899
     44      -0.040136   0.010255   0.050626   0.055543  -0.026608   0.002734
     45       0.003043   0.000375   0.000605   0.010137   0.015475   0.023721
     46      -0.011915   0.070357  -0.001089   0.026985   0.021187   0.037073
     47       0.006338   0.096826  -0.002409   0.024138   0.038313   0.016317
     48       0.030850   0.073228  -0.000525   0.040392   0.093620   0.092642
     49      -0.023149  -0.031159   0.000584  -0.033745  -0.051352  -0.062495
     50      -0.008603   0.082726  -0.004357   0.017095   0.006551  -0.018653
     51       0.004599  -0.137355   0.003144  -0.036060  -0.026004   0.000013
     52       0.003684   0.066554  -0.002649   0.008657   0.015301  -0.002503
     53       0.001787   0.055029   0.001283   0.018658   0.033725   0.039800
     54       0.004559  -0.184467   0.004783  -0.044449  -0.036983   0.006876
     55      -0.003686   0.111907  -0.005565   0.028952   0.025800  -0.004502
     56       0.005300  -0.049349  -0.003636  -0.005044  -0.001425  -0.006421
     57       0.000721   0.105506   0.010681   0.025332   0.015053   0.023299
     58      -0.001009  -0.084683  -0.000858  -0.014024  -0.006795  -0.000570
     59       0.006517  -0.080518   0.000080  -0.011291   0.023757   0.054700
     60      -0.002253   0.105595   0.016324   0.025921   0.006248   0.024278
     61      -0.003682  -0.084512   0.004566  -0.014415  -0.018428  -0.002373
     62       0.013231  -0.421863  -0.004317  -0.088036  -0.034575   0.040851
     63      -0.004615   0.320840   0.018500   0.079449   0.045114   0.028909
     64       0.003272  -0.242713  -0.010012  -0.048242  -0.020072  -0.004326
     65       0.002810   0.077912   0.004569   0.029471   0.048575   0.058340
     66       0.002351   0.189922   0.004942   0.043182   0.043385   0.026398
     67      -0.002089  -0.136989   0.001715  -0.023552  -0.020806  -0.001508
     68       0.008005  -0.018349   0.000902  -0.005761   0.027450   0.051555
     69       0.002316  -0.068786   0.011388  -0.017858  -0.001813   0.055373
     70      -0.004670   0.060140  -0.008836   0.020737   0.006574  -0.030323
     71       0.005679  -0.096390  -0.006269  -0.016080  -0.016532  -0.026728
     72      -0.002071  -0.204232  -0.001126  -0.040119  -0.045719  -0.013043
     73      -0.002415   0.126140  -0.003594   0.029818   0.031586   0.006284
     74       0.005920  -0.087470  -0.005593  -0.012465  -0.015955  -0.027276
     75       0.006843  -0.257033  -0.000398  -0.063185  -0.059983  -0.031328
     76      -0.007139   0.137367  -0.005176   0.038777   0.034753   0.013517
     77       0.005975  -0.115207  -0.008654  -0.020570  -0.021949  -0.036978
     78      -0.096414  -0.002396   0.036753  -0.089118   0.011062   0.299911
     79       0.278577  -0.168813  -0.003948   0.119825  -0.056789   0.153956
     80      -0.390456  -0.077163   0.035120  -0.215140   0.208111  -0.019184
     81      -0.026571   0.102311   0.107750  -0.170877  -0.149684   0.003396
     82       0.096045  -0.067264  -0.126001   0.103364  -0.232426  -0.176014
     83      -0.105305   0.003924   0.233778  -0.260579   0.200010  -0.146892
     84       0.087885  -0.062940  -0.007051   0.027261   0.032567   0.128030
     85      -0.174944  -0.025026   0.033598  -0.073996  -0.015059  -0.150831
     86       0.311872   0.007089  -0.044811   0.054264  -0.134586  -0.138564
     87       0.030731   0.035849  -0.044923   0.092479   0.127761  -0.414939
     88      -0.141026  -0.031470  -0.014450   0.043366   0.120537   0.043417
     89       0.229566  -0.012175   0.019319   0.025575   0.044226   0.057936
     90      -0.089363  -0.092516  -0.103500   0.074161   0.075684  -0.079155
     91       0.217282   0.024612   0.154620   0.024961   0.236555  -0.341037
     92      -0.383520  -0.065754  -0.313541   0.122167  -0.107576  -0.063885
     93      -0.042577  -0.008669   0.074655   0.033282  -0.003868  -0.144378
     94       0.088146   0.055449  -0.184437  -0.097493  -0.106320  -0.052961
     95      -0.159332   0.005633   0.292280   0.083322  -0.056606  -0.051238
     96       0.006988   0.042857  -0.066230   0.020802  -0.018346  -0.111080
     97      -0.061148   0.051118   0.115194   0.026397   0.070870   0.038218
     98       0.088943   0.015481  -0.193580  -0.008491  -0.054470   0.111545
     99      -0.020754  -0.038874   0.034467   0.065920  -0.011685   0.113788
    100       0.093348   0.083642  -0.055925  -0.176119   0.080023   0.130429
    101      -0.141777  -0.063868   0.082926   0.239523  -0.204244   0.077292
    102      -0.056634  -0.014763   0.122112   0.176192  -0.103011   0.021575
    103       0.106782   0.166993  -0.372555  -0.390141   0.298759  -0.180626
    104      -0.196605  -0.182354   0.556316   0.604032  -0.535226  -0.056842
                 30         31         32         33         34         35    
      0       0.162999  -0.006793  -0.029162  -0.044795   0.027275   0.011734
      1       0.083120  -0.030734   0.013898  -0.073473   0.002195   0.001537
      2      -0.008593   0.037848  -0.037973  -0.055715  -0.012269   0.003478
      3       0.012688  -0.027568   0.072659  -0.133277  -0.059557  -0.012806
      4      -0.009200   0.031349   0.000063  -0.104169  -0.017869   0.025468
      5       0.008094  -0.058985  -0.006599  -0.020219  -0.017923  -0.037334
      6      -0.036847   0.001632   0.061652  -0.074036  -0.047639  -0.003171
      7      -0.147288  -0.014419  -0.036525   0.126097  -0.050283   0.010095
      8      -0.083607   0.043638  -0.014614   0.102885   0.001791   0.005490
      9       0.092526  -0.011136  -0.008089   0.138646   0.055508  -0.007242
     10       0.080796   0.005430  -0.109486  -0.192273  -0.073668   0.041999
     11       0.027583  -0.033315   0.274736  -0.015157   0.135013  -0.076011
     12       0.007061  -0.003864  -0.089468   0.137269   0.075738   0.019015
     13      -0.033929   0.012800   0.014648   0.075246   0.004660  -0.052980
     14      -0.009569  -0.023582  -0.061812  -0.000408   0.023701   0.086030
     15      -0.022031   0.003836   0.079282   0.231898  -0.121655   0.000214
     16       0.013445  -0.001759   0.085715  -0.107090   0.039065  -0.016244
     17       0.074313  -0.014572   0.082849  -0.096725  -0.110890  -0.002590
     18      -0.100465  -0.010336  -0.085307  -0.015409  -0.016511  -0.019016
     19      -0.073228   0.043805   0.141684   0.149841   0.064756   0.040787
     20      -0.022772  -0.065517  -0.227510  -0.009200  -0.184650  -0.047970
     21      -0.079063   0.012486  -0.014101  -0.012974   0.060089  -0.003503
     22       0.189555   0.006190  -0.063396   0.009782  -0.069970   0.012068
     23       0.129303   0.000181   0.125466   0.063278   0.016990   0.012049
     24      -0.130611   0.011227  -0.034759  -0.020369   0.004009   0.002140
     25       0.227462   0.000274   0.039596   0.010324   0.016345   0.006431
     26       0.191580   0.015156  -0.082766  -0.023248  -0.049680   0.002664
     27      -0.033455   0.024795  -0.005130   0.068662   0.044685   0.022927
     28      -0.022990  -0.062623  -0.110996   0.111180   0.041170  -0.074819
     29      -0.009966   0.107174   0.053217   0.067252   0.095662   0.086334
     30      -0.009428  -0.004453  -0.009318   0.083733   0.052033  -0.033593
     31       0.186230   0.012445  -0.044756   0.033036   0.037557   0.048029
     32       0.093571  -0.012566   0.037981   0.013603  -0.016967  -0.084968
     33      -0.121267  -0.005857   0.058658  -0.154856  -0.117017   0.021088
     34      -0.128713   0.009430  -0.008715   0.066217   0.090748  -0.008405
     35      -0.027254  -0.011259  -0.090708   0.071043   0.042610  -0.027872
     36       0.009168  -0.024291   0.029468  -0.074839  -0.025104   0.008146
     37      -0.226057   0.068976  -0.013225  -0.058753  -0.013616  -0.007755
     38      -0.170657  -0.114260   0.031187   0.007683   0.040601   0.009393
     39       0.074513   0.036310   0.021070  -0.092268  -0.041775  -0.010589
     40      -0.098381  -0.083610   0.080124  -0.126441  -0.047521   0.049785
     41      -0.060287   0.125605   0.007186  -0.088726  -0.073118  -0.054718
     42       0.202808  -0.012281  -0.046274   0.150560   0.116308  -0.036646
     43       0.001101   0.042760   0.017956  -0.059731  -0.030521   0.012413
     44      -0.061462  -0.076460   0.052540  -0.058574  -0.015233  -0.014224
     45      -0.003546   0.004270   0.022390   0.107222  -0.162003   0.016299
     46      -0.006204   0.007493   0.026334  -0.033484  -0.028480  -0.007480
     47      -0.035230   0.002263  -0.036041   0.063281  -0.022379   0.009784
     48      -0.064845   0.002887  -0.092045  -0.036214   0.099436   0.002054
     49       0.027650  -0.003732   0.038674   0.069868  -0.067284   0.006497
     50      -0.014711   0.003446   0.021913   0.169518  -0.173348   0.018105
     51       0.029542  -0.008234   0.021366  -0.058689   0.011480  -0.001872
     52      -0.021757  -0.000058  -0.040062   0.007683   0.057260  -0.000500
     53      -0.027575   0.003815  -0.054014  -0.050129   0.102606  -0.005365
     54       0.055097  -0.011632   0.068080  -0.111638  -0.049413  -0.001006
     55      -0.037155   0.006061  -0.043610   0.077675   0.028428   0.001419
     56      -0.001495  -0.000825   0.000669   0.023090  -0.017197   0.002050
     57      -0.008800   0.006169  -0.035768  -0.070404   0.103912  -0.010554
     58       0.000686  -0.000845  -0.001802  -0.004273   0.010662  -0.000135
     59      -0.015831  -0.002197  -0.074959  -0.165793   0.245435  -0.019369
     60       0.003993   0.007395  -0.021285  -0.089299   0.097352  -0.012564
     61       0.016728  -0.000801   0.017819  -0.026320  -0.002663  -0.001934
     62       0.046137  -0.017479   0.004295  -0.247172   0.183567  -0.021785
     63      -0.043611   0.020606  -0.076597   0.001393   0.102004  -0.007280
     64       0.011917  -0.009162   0.017164  -0.024273   0.002091   0.000358
     65      -0.045578   0.008820  -0.107774  -0.101107   0.237883  -0.015452
     66      -0.043414   0.009478  -0.078925  -0.009853   0.121842  -0.004894
     67       0.017208  -0.002170   0.020163  -0.034068   0.001834  -0.002950
     68      -0.016977  -0.002320  -0.081660  -0.143089   0.228535  -0.015631
     69       0.029350  -0.005840   0.006790  -0.210691   0.104055  -0.012191
     70      -0.022930   0.004889   0.002114   0.156788  -0.090071   0.009645
     71       0.009394  -0.003196   0.026863   0.063977  -0.081631   0.006592
     72       0.060064  -0.010278   0.111141  -0.017773  -0.169959   0.006803
     73      -0.040228   0.006089  -0.061929   0.037956   0.079981  -0.002098
     74       0.008196  -0.002196   0.034151   0.087155  -0.110981   0.009183
     75       0.066979  -0.015965   0.103175  -0.031077  -0.146352   0.006645
     76      -0.038795   0.008061  -0.047352   0.051132   0.044317  -0.000632
     77       0.011892  -0.004528   0.036839   0.091799  -0.113321   0.009331
     78      -0.044429   0.050900   0.136479   0.049554  -0.029364   0.059598
     79      -0.142614  -0.139333  -0.170885   0.148457  -0.178062  -0.127513
     80      -0.099558   0.248625   0.219128   0.152116   0.187106   0.236200
     81       0.172591   0.040200  -0.139193  -0.044748  -0.015206   0.090979
     82       0.109286  -0.121495   0.084865   0.180854   0.148930  -0.147539
     83       0.010871   0.202605  -0.381248  -0.110325  -0.171599   0.276370
     84      -0.142778  -0.000842   0.075430  -0.043837  -0.101647   0.042646
     85       0.092812  -0.016622   0.002166  -0.156082   0.008161  -0.108381
     86       0.113827   0.002420  -0.019128  -0.104763   0.007676   0.184756
     87       0.138122   0.033738   0.042275  -0.038029   0.152298   0.010631
     88       0.279342  -0.033492  -0.255375  -0.062959  -0.196180  -0.035076
     89       0.111796   0.066387   0.428940   0.156773   0.235749   0.085732
     90      -0.140823   0.025488  -0.068748  -0.043736   0.012465   0.018856
     91       0.167635  -0.020162   0.089144  -0.004012   0.025278  -0.035281
     92       0.197410   0.066237  -0.211881  -0.089068  -0.031556   0.073038
     93       0.072781  -0.052313  -0.065696   0.115672   0.126597   0.025456
     94      -0.198470   0.163671  -0.053184   0.010706   0.023741  -0.142716
     95      -0.175835  -0.260137   0.028280   0.028085   0.082707   0.204571
     96      -0.098514   0.056955   0.030134  -0.184054  -0.084524   0.065116
     97       0.003162  -0.132755   0.099413  -0.065473  -0.024028  -0.111114
     98       0.095588   0.202523  -0.062456  -0.028779  -0.027428   0.177291
     99       0.169934  -0.037699  -0.058884   0.178422   0.162510   0.116538
    100      -0.129978   0.103863   0.016058   0.002098  -0.052908  -0.397156
    101      -0.097347  -0.176943   0.009713   0.008304   0.130908   0.600078
    102      -0.104413   0.151543   0.072241  -0.200404  -0.151969  -0.019882
    103      -0.050980  -0.394035   0.009671   0.057079   0.104023   0.107487
    104      -0.004344   0.614609  -0.060866  -0.066338  -0.048794  -0.196697
                 36         37         38         39         40         41    
      0      -0.069658   0.024947  -0.135898   0.020706   0.027815  -0.012825
      1      -0.048330   0.003439   0.002620  -0.040785  -0.035824   0.004990
      2      -0.000343   0.016901   0.052400  -0.005011   0.069971  -0.017825
      3      -0.028662   0.013476   0.173801  -0.045891   0.004559   0.000802
      4      -0.077116   0.000544   0.162215  -0.037786  -0.012273  -0.003655
      5      -0.025309   0.038426   0.047993  -0.006560   0.027239  -0.003859
      6      -0.014536   0.007135   0.127178  -0.013403   0.015362  -0.001587
      7      -0.105930   0.017419   0.083888   0.124914  -0.052064   0.013578
      8      -0.059693   0.037238   0.023175   0.101675   0.069912  -0.016547
      9      -0.101863   0.046866  -0.090766   0.094948  -0.009557   0.002466
     10       0.061339  -0.052357  -0.032765  -0.073774   0.032376  -0.007551
     11       0.046706   0.039268  -0.026963  -0.051620  -0.046352   0.013458
     12      -0.063077  -0.006210  -0.029062   0.079691  -0.017984  -0.007112
     13       0.056211   0.061097  -0.072709   0.005685   0.036460   0.011474
     14      -0.036420  -0.112429  -0.022377  -0.017283  -0.046658  -0.029595
     15      -0.039294   0.017473  -0.013524   0.028349  -0.037279   0.042756
     16       0.104165  -0.027091  -0.012103  -0.141500  -0.002732   0.002425
     17       0.146648  -0.046562  -0.026241   0.075031  -0.009644   0.020615
     18       0.015990   0.006182   0.068828   0.043101  -0.000731   0.003658
     19      -0.078150  -0.003340  -0.046273   0.049671  -0.000844  -0.015317
     20       0.016584   0.040366  -0.039337   0.006022   0.000500   0.030167
     21       0.064768  -0.022361  -0.062081  -0.005941  -0.011943  -0.002186
     22      -0.009422   0.007667  -0.233778  -0.046121   0.035713   0.000969
     23      -0.037085   0.007099  -0.156790  -0.034673  -0.046821   0.006545
     24       0.133679  -0.031666  -0.242965  -0.112650   0.009184   0.006095
     25      -0.038287  -0.006299  -0.094700   0.017415   0.007620  -0.016664
     26      -0.032693   0.040135   0.020930   0.037434  -0.014565   0.020860
     27       0.023670   0.000746  -0.047504   0.009152   0.030827   0.000006
     28       0.055764  -0.019717   0.021061  -0.009883  -0.076414  -0.007063
     29       0.049306  -0.008870   0.041330   0.007473   0.122022   0.007048
     30       0.112499  -0.010211   0.021296  -0.068782  -0.018264  -0.000822
     31      -0.024661  -0.048006   0.085332   0.026659   0.050417   0.008621
     32       0.017273   0.082393   0.028424   0.021020  -0.084657  -0.014119
     33      -0.093006   0.043801  -0.123639   0.041957  -0.009099  -0.012753
     34       0.081278  -0.048815  -0.000841  -0.060974   0.020156   0.018031
     35       0.109823   0.003946   0.032040  -0.046805  -0.033919  -0.022624
     36      -0.051566  -0.005134  -0.002331   0.021653   0.012505   0.026763
     37       0.071556   0.030120  -0.071130  -0.047559  -0.026164  -0.069096
     38      -0.004255  -0.067910  -0.051242  -0.025713   0.045419   0.111035
     39      -0.060820   0.016520   0.090235   0.035602  -0.005406   0.008730
     40      -0.074154   0.015011   0.096207   0.044921   0.006620  -0.020963
     41      -0.032458   0.019087   0.035436   0.011454  -0.013120   0.031685
     42       0.096286  -0.071952   0.259259  -0.046774   0.004015  -0.012663
     43       0.036445   0.076936   0.141751   0.009100  -0.020560   0.041101
     44      -0.134317  -0.105788   0.001921   0.024735   0.026151  -0.063402
     45       0.076873  -0.041308   0.020445   0.222494   0.021787  -0.028062
     46       0.159895  -0.057976  -0.012914   0.530134   0.001538  -0.012714
     47      -0.045920   0.010613   0.019568  -0.253244   0.015461  -0.011297
     48      -0.052502   0.015716   0.015884  -0.162844   0.015009  -0.014499
     49      -0.032984   0.010514   0.002771  -0.156931  -0.004005   0.007324
     50       0.014912  -0.017617   0.027577  -0.099407   0.024126  -0.022831
     51      -0.004724   0.004296  -0.000231  -0.080205  -0.001149   0.003763
     52      -0.052281   0.020202   0.000504  -0.122210   0.000084   0.001769
     53      -0.017297   0.007594  -0.005233   0.065113  -0.001206  -0.003304
     54       0.088885  -0.029780   0.004222  -0.081983   0.011870  -0.008775
     55      -0.059406   0.020130  -0.002045   0.042286  -0.007115   0.005276
     56      -0.002511  -0.000220   0.002977  -0.000880   0.002232  -0.002605
     57      -0.015539   0.010754  -0.013393   0.080606  -0.013011   0.011262
     58      -0.010082   0.003900   0.001300  -0.015956   0.000322  -0.000796
     59      -0.056076   0.031156  -0.029165   0.184819  -0.026384   0.020934
     60      -0.000255   0.005706  -0.016630   0.099379  -0.015581   0.013244
     61       0.011876  -0.002880  -0.002185   0.000200  -0.001910   0.001349
     62       0.002500   0.011654  -0.035162   0.210783  -0.028642   0.027419
     63      -0.037173   0.014528  -0.005535   0.069162  -0.007144   0.002237
     64      -0.002298   0.002027   0.001166  -0.005163  -0.000719   0.002554
     65      -0.074511   0.033826  -0.021061   0.171538  -0.020318   0.012645
     66      -0.059605   0.023527  -0.003540   0.029713  -0.007087   0.004207
     67       0.013051  -0.003033  -0.003125   0.015778  -0.003081   0.003208
     68      -0.063577   0.031785  -0.025636   0.136248  -0.019107   0.013746
     69       0.076916  -0.020269  -0.008764   0.006075   0.005850  -0.007299
     70      -0.037114   0.007940   0.006697   0.022002  -0.002567   0.003703
     71       0.003500  -0.004493   0.008420  -0.037926   0.004934  -0.003367
     72       0.112395  -0.043663   0.011195  -0.058737   0.013520  -0.008297
     73      -0.066017   0.024510  -0.006042   0.052375  -0.008820   0.005549
     74       0.010306  -0.008263   0.011885  -0.047081   0.008324  -0.005724
     75       0.077104  -0.028585   0.015024  -0.188847   0.016034  -0.008630
     76      -0.037424   0.012157  -0.006482   0.115302  -0.007813   0.004322
     77      -0.000496  -0.004376   0.012262  -0.074400   0.006736  -0.003493
     78      -0.056488  -0.037328   0.015764   0.029184  -0.093707   0.022571
     79      -0.057958   0.151160   0.039850   0.199656   0.208384  -0.020061
     80      -0.162267  -0.173019   0.024416   0.030429  -0.359634   0.045395
     81      -0.112840  -0.050110  -0.170288   0.039354  -0.070211   0.005268
     82      -0.095174   0.207267  -0.157681   0.150218   0.191235  -0.045839
     83      -0.106387  -0.259496  -0.016682   0.005462  -0.279054   0.048739
     84      -0.068780  -0.051970   0.313380   0.027236  -0.144947   0.034614
     85      -0.022067   0.164760   0.074962  -0.044062   0.319718  -0.068356
     86      -0.089973  -0.235436  -0.037782  -0.166417  -0.490768   0.086035
     87       0.030347  -0.054746  -0.027961   0.031430   0.061296  -0.043119
     88       0.060529   0.097602  -0.265706  -0.060784  -0.150615   0.088969
     89      -0.159899  -0.132280  -0.105652   0.005276   0.250539  -0.136883
     90       0.101037  -0.088965  -0.243603  -0.094356   0.083799  -0.022167
     91       0.036564   0.134050  -0.127313   0.059080  -0.175541   0.043161
     92      -0.170380  -0.186672   0.018444   0.086133   0.282774  -0.089879
     93       0.156736   0.001430   0.031862  -0.067995  -0.032476  -0.149184
     94       0.018798  -0.137609  -0.083275  -0.084152   0.089312   0.391265
     95       0.199512   0.165196  -0.014095  -0.034053  -0.140719  -0.625698
     96      -0.021006   0.115798  -0.101634   0.030877  -0.030580  -0.087312
     97      -0.227126  -0.200704   0.219904   0.048563   0.073358   0.208598
     98       0.268609   0.334687   0.211908   0.012782  -0.126099  -0.330771
     99       0.266196   0.071001   0.303939  -0.070780   0.004686   0.090890
    100      -0.198396  -0.334823   0.058506  -0.064513  -0.022968  -0.219392
    101       0.461054   0.479936   0.147633  -0.015689   0.027881   0.343241
    102      -0.115261   0.044724  -0.112639   0.013761  -0.014781  -0.000825
    103       0.074859  -0.040445   0.069158  -0.020546   0.034915  -0.020893
    104       0.050072   0.001368   0.043688  -0.146418  -0.054341   0.031225
                 42         43         44         45         46         47    
      0       0.088959  -0.086426  -0.025721   0.002320  -0.155532   0.026452
      1       0.014295   0.095619  -0.067373   0.027104  -0.036734  -0.074435
      2       0.068396   0.077730   0.082436  -0.040254   0.017161   0.114016
      3       0.013832   0.184155   0.006473  -0.005519   0.032519  -0.005539
      4       0.066111   0.243345  -0.028967   0.004234   0.010491   0.014065
      5       0.027162   0.101500   0.004916  -0.007577  -0.002850  -0.016511
      6      -0.004822   0.092427   0.035185  -0.005023   0.027274  -0.021838
      7      -0.035428  -0.146975  -0.058846   0.004205   0.000954   0.062407
      8       0.000857  -0.112905   0.100667  -0.006820  -0.004790  -0.096990
      9       0.010030  -0.039165  -0.046123   0.007572  -0.029580  -0.007752
     10      -0.019466  -0.089821   0.132147  -0.019042  -0.002230   0.031864
     11      -0.006435  -0.030840  -0.190462   0.029306  -0.008806  -0.052619
     12       0.029619  -0.075069   0.032994   0.001414   0.099978   0.000216
     13      -0.058409  -0.085229  -0.158170  -0.003584   0.011173  -0.000115
     14       0.126712  -0.057613   0.213989   0.013314  -0.006099   0.003392
     15      -0.271296   0.092074   0.143033  -0.015700  -0.032241   0.012897
     16      -0.038974  -0.172086   0.002921  -0.001302   0.045179  -0.000683
     17      -0.168330  -0.094322   0.115108  -0.017975   0.035381   0.023622
     18      -0.036054  -0.106460  -0.045954   0.012180   0.061074   0.006391
     19       0.059524  -0.064373   0.115189  -0.025839  -0.045383  -0.034371
     20      -0.134965  -0.003709  -0.173692   0.047735  -0.044797   0.045256
     21       0.015680  -0.135348   0.004190  -0.020480   0.018800  -0.004403
     22      -0.031756   0.181912  -0.010689   0.052449  -0.009917   0.006584
     23       0.068177   0.139676   0.040531  -0.078496  -0.019625  -0.009895
     24       0.014872   0.069564   0.005073  -0.018295  -0.261595  -0.006155
     25       0.006032  -0.003878   0.005278   0.053677   0.119013   0.020852
     26       0.013176  -0.023539  -0.031144  -0.088863   0.128085  -0.031341
     27      -0.023540   0.016061  -0.048637  -0.015304   0.190675  -0.000799
     28       0.076961  -0.047745   0.092185   0.028529   0.050597   0.002210
     29      -0.129953  -0.008535  -0.161231  -0.049329  -0.019818  -0.003133
     30       0.019471   0.094093   0.032379   0.026774   0.028262   0.006124
     31      -0.055866  -0.027510  -0.069240  -0.068734   0.041260  -0.008364
     32       0.081348  -0.054985   0.108337   0.109855   0.029711   0.017436
     33       0.012923   0.002572  -0.002884   0.001685   0.221770   0.001597
     34      -0.013118   0.082036  -0.007729  -0.007014  -0.029615   0.001174
     35       0.001404   0.048905   0.034582   0.006813  -0.076016   0.000371
     36       0.016630  -0.025017  -0.001805   0.001283  -0.067842  -0.000085
     37      -0.014370   0.130940   0.005683  -0.002964   0.118749  -0.001401
     38       0.048890   0.080733   0.001847  -0.001578   0.114100  -0.002389
     39       0.008009  -0.072717   0.004991   0.007816  -0.178608  -0.001024
     40      -0.025625  -0.076950  -0.015176  -0.008450  -0.168197  -0.001515
     41       0.030753  -0.040518   0.026052   0.021467  -0.081229   0.003259
     42      -0.037507   0.037974  -0.000757  -0.019308   0.005674  -0.004916
     43       0.031469  -0.044630   0.032567   0.036543  -0.074239   0.002334
     44      -0.063526  -0.024631  -0.051667  -0.059168  -0.044840  -0.007057
     45       0.186439   0.074574  -0.078107   0.011291  -0.039352   0.002510
     46       0.114220   0.042665  -0.065449   0.007205   0.002357  -0.016720
     47       0.059848  -0.064759  -0.027997   0.002235   0.019846  -0.003632
     48       0.090568  -0.041824  -0.050302   0.005923   0.012749  -0.008396
     49      -0.056372  -0.012921   0.029714  -0.003142  -0.000750   0.004351
     50       0.143667  -0.017481  -0.067355   0.008054  -0.003158  -0.007414
     51      -0.028494  -0.001940   0.015421  -0.001592  -0.006110   0.004302
     52      -0.015053  -0.034600   0.002883  -0.000967   0.015255  -0.002715
     53       0.031152  -0.006121  -0.026801   0.003185   0.010458  -0.010285
     54       0.045003  -0.105069  -0.028349   0.000816   0.044249  -0.011129
     55      -0.026827   0.064749   0.016287  -0.000286  -0.027242   0.005943
     56       0.015970  -0.004365  -0.009618   0.000981   0.003706  -0.003606
     57      -0.067595   0.032273   0.035250  -0.003264  -0.014242   0.008066
     58       0.006458  -0.001297  -0.005854   0.000687   0.001359  -0.002689
     59      -0.119550   0.079540   0.055427  -0.004698  -0.025351   0.010250
     60      -0.085527   0.037099   0.046524  -0.004604  -0.017593   0.012107
     61      -0.014334  -0.003374   0.007262  -0.000876   0.000582   0.001354
     62      -0.171348   0.100113   0.095855  -0.009811  -0.042927   0.027923
     63      -0.008758   0.020501   0.001236   0.001241  -0.008885  -0.001171
     64      -0.014507   0.012579   0.008748  -0.001385  -0.004075   0.003246
     65      -0.064867   0.070350   0.024802  -0.000802  -0.020569   0.002784
     66      -0.015691   0.026259   0.002966   0.000912  -0.010090  -0.001836
     67      -0.020938   0.004578   0.011632  -0.001590  -0.001558   0.002564
     68      -0.074699   0.057070   0.029219  -0.001440  -0.017461   0.004909
     69       0.044900  -0.133571  -0.046230   0.002033   0.072551  -0.027360
     70      -0.023605   0.089502   0.030044  -0.001536  -0.048670   0.019362
     71       0.016887   0.005506  -0.003066   0.000609  -0.007045   0.002428
     72       0.042161  -0.066043  -0.011026  -0.000968   0.020312   0.001080
     73      -0.027132   0.050260   0.009942   0.000314  -0.016565   0.000355
     74       0.030270   0.009199  -0.006115   0.000619  -0.011080   0.005818
     75       0.038224  -0.084063  -0.014637  -0.000414   0.023430  -0.000631
     76      -0.018115   0.056409   0.011679  -0.000003  -0.019347   0.004703
     77       0.016604   0.010156   0.001287  -0.000164  -0.012397   0.007008
     78      -0.031858  -0.102362  -0.031955  -0.024165  -0.034938   0.124142
     79      -0.145171  -0.226303   0.155521   0.053789  -0.024338  -0.296218
     80       0.137670  -0.125976  -0.239355  -0.087152  -0.008906   0.491635
     81       0.018982  -0.099624  -0.085220   0.062730  -0.176411  -0.182922
     82       0.250343  -0.057959   0.018892  -0.088156  -0.123464   0.369283
     83      -0.206559   0.064177  -0.110811   0.163213  -0.008169  -0.606261
     84      -0.105365   0.099787  -0.098211   0.029546   0.159979   0.037350
     85       0.212427   0.300457   0.287393  -0.090964  -0.074739  -0.078386
     86      -0.063723   0.184897  -0.588083   0.163091  -0.089282   0.122742
     87      -0.016592  -0.172922   0.020821   0.154208   0.353852   0.009140
     88       0.095411   0.149402  -0.111412  -0.396480   0.076741  -0.022385
     89      -0.125214   0.178315   0.192007   0.639141   0.027783   0.036858
     90      -0.067306   0.012821  -0.032866   0.104009  -0.246182   0.045388
     91       0.215559  -0.265721   0.073883  -0.246028   0.156518  -0.112049
     92      -0.319467  -0.105111  -0.177792   0.397648   0.197349   0.177501
     93      -0.082011   0.101582  -0.006672  -0.018261  -0.145602   0.001986
     94       0.205800   0.152031   0.055224   0.031909   0.160365  -0.007692
     95      -0.312242   0.139468  -0.067397  -0.060510   0.012160   0.007130
     96      -0.015008   0.027165  -0.018400  -0.002795  -0.035872  -0.004837
     97       0.072971  -0.166921   0.034687   0.017824  -0.310144   0.005333
     98      -0.171861  -0.054753  -0.043606  -0.019922  -0.101610  -0.006744
     99       0.022209   0.070481   0.040282   0.032460   0.039793  -0.001382
    100      -0.131303   0.106356  -0.056978  -0.105574   0.065162  -0.010252
    101       0.177744   0.013395   0.103601   0.147997   0.022115   0.008906
    102       0.021722  -0.017355   0.004295   0.005348   0.157120   0.000932
    103      -0.031441   0.040486  -0.028820  -0.011374  -0.246914   0.004748
    104       0.034840   0.004303   0.061715   0.019237  -0.188676  -0.002194
                 48         49         50         51         52         53    
      0       0.003920   0.004274   0.020013   0.002765   0.229504  -0.141665
      1       0.001880  -0.016304  -0.035317  -0.012963  -0.013106  -0.018675
      2      -0.001011   0.022251   0.046927   0.019398  -0.071779   0.014716
      3      -0.000785   0.010014  -0.028318  -0.011203  -0.025852   0.023731
      4      -0.003315   0.028154   0.064414   0.040871  -0.045146  -0.021418
      5       0.002061  -0.007959  -0.099504  -0.057077  -0.014213  -0.019112
      6      -0.001695   0.001663   0.013631   0.016091  -0.066711   0.027847
      7       0.000997   0.025600  -0.041590  -0.041694   0.236071   0.058086
      8      -0.002254   0.015038   0.068832   0.062720   0.159422   0.032131
      9      -0.001373   0.029539  -0.002494   0.001509   0.003895   0.105184
     10       0.001090  -0.020466   0.005353  -0.003499   0.000667  -0.014805
     11       0.000337  -0.038645  -0.007530  -0.000860   0.011127  -0.026008
     12      -0.005187   0.054069  -0.004744   0.000353  -0.173416   0.184435
     13      -0.000488  -0.075435   0.000003   0.005598  -0.238472  -0.084347
     14       0.004748  -0.050110   0.003500  -0.002896  -0.110245  -0.099423
     15      -0.001153   0.096948  -0.003864   0.001272  -0.036705  -0.113896
     16       0.001303  -0.067495   0.005636  -0.000114   0.051004   0.112654
     17      -0.000080  -0.011713   0.006244  -0.000174   0.025605   0.069434
     18      -0.000381  -0.011712   0.001566  -0.010007  -0.011965  -0.002374
     19       0.001727  -0.002681   0.003006   0.020541  -0.043016  -0.074895
     20       0.001541   0.006839  -0.004862  -0.031498  -0.020248  -0.045226
     21       0.000486  -0.039358  -0.011257   0.021821   0.006730  -0.079619
     22      -0.004031   0.063206   0.029465  -0.065678   0.017364   0.090112
     23      -0.001721   0.034935  -0.046137   0.092471   0.016599   0.072296
     24       0.005868   0.000999   0.017495  -0.026355  -0.012586  -0.015823
     25       0.002618  -0.020841  -0.040338   0.065057   0.044745  -0.013553
     26      -0.011464  -0.003746   0.067913  -0.101232   0.020207  -0.005835
     27      -0.009614  -0.010370  -0.002293   0.003123  -0.114561   0.092672
     28       0.007561  -0.033985  -0.000078   0.001621  -0.215235  -0.034501
     29      -0.012501  -0.025112  -0.002868   0.004780  -0.103528  -0.042075
     30       0.001928   0.003870  -0.005516   0.007170  -0.006649   0.063993
     31      -0.010941  -0.015009   0.011673  -0.016609  -0.008880   0.006505
     32       0.016815  -0.009647  -0.020928   0.030892  -0.003435  -0.011694
     33      -0.007374  -0.050751   0.003718  -0.001061  -0.029875  -0.177943
     34      -0.005023   0.016293  -0.001492   0.000563  -0.020849  -0.011916
     35       0.002517   0.025910  -0.000956  -0.001161  -0.005863   0.038315
     36       0.018206   0.008280  -0.000850   0.001579  -0.048784   0.042235
     37      -0.043388   0.018459   0.000810  -0.003119   0.270821   0.022075
     38       0.065846   0.015181   0.003875  -0.002780   0.176426   0.000995
     39      -0.018036   0.034499  -0.003257   0.000770   0.000323   0.112075
     40       0.075175   0.021190  -0.000491   0.000352  -0.042036   0.040516
     41      -0.108260  -0.009479  -0.003704   0.001793  -0.022902  -0.001195
     42       0.008738  -0.011641   0.004092  -0.004962   0.217258  -0.145978
     43      -0.011401   0.004108  -0.006316   0.008544  -0.019555  -0.005128
     44       0.026375   0.009249   0.008285  -0.010867  -0.067606   0.033317
     45       0.007558  -0.244600   0.011131  -0.001327   0.027912   0.062785
     46      -0.005929   0.174783  -0.010868  -0.000030  -0.024999  -0.050685
     47      -0.001533   0.041063  -0.001736   0.000387   0.000405   0.002493
     48      -0.001698   0.037892  -0.002392   0.000189  -0.001104  -0.001239
     49       0.001389  -0.042692   0.002457  -0.000270   0.006323   0.009927
     50       0.000926  -0.040762   0.000977  -0.001171   0.007683   0.008838
     51       0.002309  -0.072766   0.003818  -0.000882   0.006856  -0.001479
     52      -0.002716   0.086344  -0.004305   0.001063  -0.006403  -0.001068
     53      -0.004472   0.138888  -0.008517   0.001271  -0.018569  -0.031354
     54      -0.007041   0.198383  -0.010091   0.001560  -0.016682  -0.011589
     55       0.003966  -0.111919   0.005311  -0.000975   0.007387   0.001107
     56      -0.001850   0.060346  -0.003910   0.000652  -0.009387  -0.015046
     57       0.003557  -0.100858   0.006013  -0.000901   0.012661   0.017509
     58      -0.001134   0.034291  -0.002377   0.000463  -0.004918  -0.005021
     59       0.003809  -0.112372   0.006358  -0.000358   0.010325   0.017386
     60       0.005231  -0.161624   0.009858  -0.001685   0.021172   0.025994
     61       0.000231  -0.019601   0.001230  -0.000241   0.004487   0.003892
     62       0.013401  -0.408374   0.024731  -0.005409   0.050782   0.043420
     63      -0.000392   0.023343  -0.001721   0.001792  -0.004103   0.020715
     64       0.001234  -0.041533   0.003060  -0.000817   0.006086  -0.006836
     65       0.000668  -0.013066   0.000293   0.001842  -0.002754   0.020254
     66      -0.000435   0.025003  -0.002701   0.001543  -0.003542   0.013084
     67       0.000765  -0.024860   0.001947  -0.000764   0.002680  -0.004322
     68       0.003371  -0.092305   0.004009   0.000206   0.008220   0.026688
     69      -0.017097   0.530909  -0.029846   0.004259  -0.063623  -0.095679
     70       0.011322  -0.354110   0.020293  -0.002860   0.044524   0.071467
     71       0.001951  -0.066140   0.003746  -0.000371   0.008648   0.016779
     72      -0.000725   0.007845   0.002033  -0.000329   0.007796   0.021259
     73       0.000790  -0.010393  -0.001091  -0.000065  -0.005851  -0.019637
     74       0.003897  -0.133069   0.008168  -0.001022   0.017209   0.036505
     75      -0.000675  -0.011756   0.002595  -0.000801   0.009667   0.024916
     76       0.002610  -0.062999   0.003135   0.000199   0.006137   0.011744
     77       0.004121  -0.134177   0.008288  -0.001121   0.018960   0.034382
     78       0.003938   0.001170  -0.096513  -0.078775  -0.005184   0.024007
     79      -0.004169   0.026601   0.213793   0.180851   0.270696   0.069709
     80       0.007930   0.014234  -0.354825  -0.308377   0.177459   0.014714
     81       0.005371  -0.020279  -0.069117  -0.031173   0.257213  -0.129242
     82       0.001738   0.092033   0.154572   0.056029   0.043114   0.005425
     83       0.003442  -0.077884  -0.263500  -0.096197  -0.042220   0.075443
     84      -0.009600   0.080503   0.140916   0.087160   0.071535   0.351283
     85       0.008884  -0.058015  -0.329566  -0.179634  -0.094700  -0.243442
     86      -0.009887   0.055003   0.547046   0.295650  -0.092731  -0.229185
     87      -0.009799  -0.057163   0.064814  -0.125371   0.046779   0.009671
     88      -0.015730   0.015365  -0.144529   0.279057   0.071057   0.125498
     89       0.008717   0.098780   0.236847  -0.468412  -0.044048   0.076889
     90       0.014174  -0.036200  -0.082141   0.121876  -0.006853  -0.096601
     91      -0.015952  -0.099089   0.217534  -0.308345  -0.023465  -0.298424
     92       0.022478  -0.093063  -0.342187   0.507260   0.070546  -0.156556
     93      -0.102367   0.047644  -0.007684   0.003261  -0.054070   0.162181
     94       0.257274   0.059440   0.009708  -0.004442   0.266148   0.071636
     95      -0.416634  -0.011347  -0.011861  -0.001594   0.216447   0.013163
     96       0.184178   0.101403   0.002942  -0.004099   0.191432   0.383586
     97      -0.422653  -0.055527  -0.012314   0.004588  -0.153430  -0.138814
     98       0.690204   0.037456   0.011985   0.001068  -0.159728  -0.185503
     99      -0.034617  -0.020998  -0.004452   0.004879   0.252400  -0.179474
    100       0.092257   0.002198   0.021720  -0.022698   0.053750  -0.089343
    101      -0.139087  -0.021963  -0.029969   0.034740  -0.029859  -0.021459
    102       0.005162  -0.064385   0.004567  -0.002409  -0.051809  -0.211779
    103      -0.025236  -0.018465  -0.000793   0.000728  -0.089334  -0.077026
    104       0.046273   0.010387   0.001352  -0.004266  -0.042228  -0.005041
                 54         55         56         57         58         59    
      0       0.006199   0.045409   0.033174  -0.007111   0.004406  -0.069156
      1       0.000217  -0.017561  -0.001344   0.001195  -0.005112   0.091229
      2      -0.002579  -0.024971  -0.005050  -0.001234  -0.004066   0.075120
      3       0.000937   0.014244   0.004660   0.012101   0.002688  -0.088202
      4       0.002308   0.006121  -0.000073   0.012154   0.003271  -0.081112
      5       0.001941   0.002181  -0.001198   0.005510   0.001572  -0.033351
      6       0.000038  -0.018361  -0.024026  -0.002581  -0.005599   0.122136
      7       0.005813   0.079193  -0.018609  -0.015793   0.002576  -0.040906
      8       0.003451   0.054721  -0.006844  -0.009897   0.003050  -0.054321
      9       0.003081   0.007085  -0.057202   0.019652  -0.004613   0.025159
     10      -0.008914  -0.007380   0.029065  -0.050194   0.004831   0.010560
     11      -0.005395  -0.004694   0.026472  -0.035752   0.004447   0.002091
     12      -0.005057  -0.010993  -0.014805  -0.040852   0.002803  -0.003005
     13      -0.005250  -0.068444   0.027405   0.033740  -0.000117  -0.030187
     14      -0.002241  -0.040496   0.021630   0.030537  -0.000890  -0.019179
     15       0.002275  -0.022219   0.033547   0.000014   0.000672  -0.016085
     16      -0.000999   0.022329  -0.038403   0.031832  -0.005269  -0.005819
     17       0.001448   0.017558  -0.030100   0.030628  -0.002133  -0.005131
     18      -0.001482  -0.016261   0.008693  -0.009726  -0.000640   0.033709
     19      -0.004431  -0.060361   0.037510   0.009244  -0.001498   0.034795
     20      -0.002225  -0.034012   0.021992   0.008826  -0.000846   0.013633
     21      -0.002823  -0.027841   0.009014  -0.022203   0.002673   0.003641
     22       0.000231   0.002914  -0.040253  -0.045844   0.002821   0.006178
     23       0.000601   0.008895  -0.026988  -0.025599   0.001414   0.002653
     24       0.003331   0.006384  -0.017133   0.047332  -0.003354  -0.031937
     25      -0.000747   0.000434   0.020034   0.024465  -0.001361  -0.011571
     26      -0.000844  -0.001153   0.015856   0.005693  -0.000165   0.000182
     27      -0.009201  -0.038913   0.027067  -0.005435   0.003590  -0.052612
     28      -0.001482  -0.035948  -0.003740   0.028284  -0.000374  -0.044928
     29       0.001521  -0.012837  -0.008612   0.019449  -0.001205  -0.014556
     30       0.001501   0.052439   0.018430  -0.005229   0.001767  -0.013790
     31       0.002559   0.032581   0.001249   0.023161  -0.001057  -0.023346
     32       0.001224   0.007810  -0.003790   0.015016  -0.001079  -0.010653
     33       0.018437   0.091122  -0.072419  -0.024670  -0.000657   0.012993
     34       0.012302   0.103633  -0.052126  -0.057603   0.003530   0.007539
     35       0.002932   0.040952  -0.013435  -0.029974   0.002330   0.001185
     36       0.004049   0.073668   0.039046   0.013711  -0.001132   0.005250
     37      -0.013076  -0.118426   0.016185   0.028653  -0.002294   0.012135
     38      -0.008797  -0.091232  -0.001571   0.013904  -0.001328   0.006120
     39      -0.018366  -0.131260   0.044223   0.016792   0.000756  -0.014251
     40      -0.006669  -0.094500  -0.080931  -0.038619   0.003322  -0.022283
     41      -0.000037  -0.029482  -0.059338  -0.026161   0.001690  -0.009919
     42      -0.000148  -0.078916  -0.055398  -0.001679  -0.002357   0.031786
     43       0.003049   0.080604   0.106296   0.035598  -0.002742   0.029642
     44       0.002018   0.068503   0.078435   0.022366  -0.001142   0.010107
     45       0.008428   0.024094  -0.061982   0.132461  -0.015467   0.005397
     46      -0.001104  -0.019088   0.053058  -0.110731   0.007410  -0.005694
     47      -0.001006  -0.008008   0.022427  -0.061136   0.005509   0.000714
     48      -0.004535  -0.006074   0.019285  -0.046869   0.005933   0.000924
     49       0.002173   0.001955  -0.006178   0.014279   0.001743  -0.001566
     50       0.000195  -0.010004   0.027281  -0.059042   0.002697  -0.000597
     51      -0.077855   0.006136   0.008829  -0.016947   0.011480   0.001910
     52       0.033831   0.001303  -0.012491   0.018248  -0.002233  -0.000182
     53      -0.044906   0.013798  -0.022420   0.044011   0.001565   0.002728
     54       0.062477  -0.004630  -0.007077   0.010821  -0.057713  -0.005282
     55      -0.069628   0.010431  -0.005398   0.007293  -0.078882  -0.003543
     56      -0.081498   0.027102  -0.044731   0.094991   0.014022   0.003722
     57      -0.031511  -0.003113   0.024463  -0.064246   0.056568   0.002038
     58       0.057150  -0.002226  -0.018957   0.064755   0.072610   0.006065
     59       0.105426  -0.016525   0.007069  -0.001146  -0.029573  -0.003076
     60      -0.121058   0.002345   0.047430  -0.154477  -0.168993  -0.015344
     61      -0.038638   0.003991   0.004983  -0.033009  -0.158949  -0.011797
     62      -0.477569   0.028225   0.118134  -0.367023   0.029559  -0.004781
     63       0.250948  -0.014714  -0.056311   0.157237  -0.212999  -0.012131
     64      -0.164687   0.011106   0.041708  -0.147253  -0.154162  -0.012935
     65       0.306946  -0.021911  -0.055413   0.153446  -0.357586  -0.022268
     66       0.282772  -0.016458  -0.067228   0.220196   0.088798   0.009025
     67      -0.091003   0.002156   0.031826  -0.095195  -0.056116  -0.005514
     68       0.117474  -0.000239  -0.049329   0.165173   0.467988   0.033513
     69      -0.336958   0.104262  -0.164345   0.336683   0.092585   0.014696
     70       0.255803  -0.072320   0.110032  -0.211153   0.199973   0.007431
     71       0.076232  -0.016159   0.017843  -0.034170  -0.042485  -0.003994
     72       0.256505  -0.069218   0.094463  -0.158662   0.446128   0.024431
     73      -0.185705   0.047404  -0.064068   0.121823  -0.152566  -0.005484
     74       0.178115  -0.047734   0.070169  -0.150031  -0.083956  -0.009955
     75       0.268837  -0.077706   0.119072  -0.260894  -0.285453  -0.027053
     76      -0.050023   0.021695  -0.041144   0.101452   0.362671   0.026823
     77       0.161790  -0.044325   0.066010  -0.133928   0.044558  -0.000972
     78      -0.004756  -0.078427  -0.029516  -0.038167  -0.026356   0.647347
     79       0.003694   0.064189  -0.024689  -0.033902  -0.005349   0.174984
     80       0.003699   0.048119  -0.001100  -0.005611   0.002483  -0.051748
     81       0.009796   0.045704   0.010835  -0.001478  -0.001982   0.025533
     82       0.007238  -0.047387  -0.081493   0.014567  -0.031704   0.523739
     83       0.005274  -0.026420  -0.061934   0.008820  -0.018471   0.296878
     84       0.002379   0.125896  -0.097425  -0.012152   0.001809  -0.162398
     85       0.003103  -0.059299   0.069024   0.030801   0.004922  -0.057610
     86      -0.002217  -0.080631   0.062382   0.020348   0.001469   0.034147
     87      -0.006043   0.028069  -0.023106  -0.184239   0.020936  -0.012875
     88      -0.001891   0.020396  -0.055504  -0.112827   0.009640   0.006045
     89       0.001545   0.008967  -0.021821  -0.013055   0.000824  -0.001291
     90       0.001171  -0.030766   0.010171   0.091257  -0.006673  -0.040668
     91      -0.007810  -0.135653   0.109900   0.182794  -0.013110  -0.039583
     92      -0.005819  -0.073120   0.070118   0.078287  -0.005829  -0.009051
     93       0.021940   0.407391   0.177408  -0.015179  -0.000131   0.040843
     94      -0.004860   0.021734   0.063832   0.012498  -0.002153   0.026244
     95      -0.011554  -0.104237   0.011490   0.016547  -0.000771   0.009354
     96      -0.056909  -0.273748   0.419454   0.226219  -0.008963   0.000092
     97       0.016369  -0.025607  -0.333614  -0.176247   0.009758  -0.032006
     98       0.028433   0.080521  -0.327540  -0.183721   0.009155  -0.021717
     99       0.006855   0.031574   0.053929   0.042411  -0.006882   0.090047
    100       0.028516   0.461695   0.464639   0.181147  -0.017067   0.205659
    101       0.014859   0.287094   0.286245   0.104036  -0.009118   0.111533
    102       0.030404   0.187945  -0.105907  -0.044538  -0.000890   0.037295
    103       0.046502   0.364323  -0.137670  -0.108180   0.001597   0.078429
    104       0.022221   0.203590  -0.068349  -0.062914   0.001480   0.042843
                 60         61         62         63         64         65    
      0       0.040201  -0.003114   0.011957  -0.001513  -0.009650  -0.023978
      1      -0.031576   0.004548   0.024585   0.047233  -0.005817   0.002648
      2      -0.027916   0.004449   0.013316   0.030574   0.001191   0.011735
      3      -0.048869   0.003796   0.017082   0.024430   0.002354   0.001277
      4       0.022715  -0.006554  -0.028966  -0.027009  -0.015491  -0.013207
      5       0.026727  -0.005249  -0.022368  -0.024024  -0.009854  -0.008636
      6       0.031791  -0.005145  -0.030624  -0.003287  -0.029478  -0.015291
      7       0.015702  -0.000913  -0.009809   0.008571  -0.037430   0.008137
      8       0.003362   0.000717   0.001350   0.007424  -0.017316   0.010504
      9      -0.052693  -0.000264  -0.013370  -0.024370  -0.005438  -0.012497
     10       0.008702   0.014505   0.031604   0.076615   0.024949   0.116094
     11       0.012988   0.007358   0.022912   0.057190   0.012959   0.070433
     12      -0.026313   0.001535  -0.031500  -0.100538   0.045607   0.088531
     13       0.009389   0.001226   0.055896   0.029439   0.010399  -0.008014
     14       0.012914   0.000766   0.040885   0.042802  -0.006225  -0.027121
     15       0.015098   0.003469   0.013080   0.035483  -0.007895   0.001627
     16      -0.005959  -0.003426  -0.020446  -0.060414   0.005341  -0.040073
     17      -0.001166  -0.002480  -0.014484  -0.045471   0.004420  -0.025824
     18       0.008559   0.000998   0.048982  -0.106458   0.085412  -0.054445
     19       0.007527  -0.001118  -0.004729  -0.030488   0.072957  -0.022319
     20       0.002245  -0.000828  -0.015417   0.006953   0.025712  -0.000507
     21       0.058774   0.000521   0.028261   0.031655   0.012586  -0.015772
     22       0.022386   0.002496   0.048843  -0.067639   0.060395  -0.006573
     23       0.001055   0.001442   0.025586  -0.051046   0.033994  -0.000219
     24      -0.083120  -0.001159  -0.045504   0.005393  -0.067778  -0.007617
     25      -0.024981  -0.000404  -0.026653   0.020419  -0.008770   0.029169
     26       0.003605  -0.000036  -0.006784   0.013308   0.009735   0.020011
     27       0.041192  -0.002000  -0.062711   0.089963   0.031370   0.026394
     28      -0.026523  -0.001718   0.024924  -0.043381  -0.054726  -0.068923
     29      -0.026750  -0.000590   0.031263  -0.049024  -0.041596  -0.050290
     30       0.064057  -0.002888   0.005776   0.069996  -0.092634  -0.005595
     31      -0.004357  -0.005661  -0.063188   0.060526  -0.152567  -0.078528
     32      -0.018236  -0.002864  -0.040439   0.019056  -0.069773  -0.046313
     33      -0.037801   0.000051   0.003568  -0.045235  -0.037415   0.001490
     34       0.015068   0.001249  -0.006175  -0.005717  -0.017539   0.083566
     35       0.019330   0.000694  -0.005125   0.008794  -0.001745   0.050823
     36       0.001403  -0.001322  -0.017152   0.027406   0.038166  -0.063484
     37      -0.011053  -0.000144  -0.011220   0.011969   0.034605  -0.038090
     38      -0.007583   0.000180  -0.002173   0.000134   0.011774  -0.007296
     39       0.015195   0.001353   0.023277  -0.016785   0.010140   0.038650
     40       0.027193   0.000357   0.011109   0.011195   0.014062   0.015037
     41       0.012569  -0.000165   0.001173   0.011177   0.005754  -0.000427
     42      -0.044685   0.002712   0.020645  -0.058337   0.035964   0.020222
     43      -0.019229   0.001144   0.002290  -0.019462   0.035009  -0.001509
     44      -0.000844  -0.000010  -0.004166   0.003452   0.012127  -0.006565
     45       0.037311  -0.012992   0.013905   0.001260   0.026659   0.014338
     46      -0.025760  -0.004889  -0.008508   0.000206  -0.015876  -0.000400
     47      -0.020741   0.000354  -0.009127  -0.011102  -0.013766  -0.018525
     48      -0.012651   0.002080  -0.005059  -0.002894  -0.005957  -0.004144
     49       0.003775   0.000539   0.000172  -0.002011   0.002082  -0.003373
     50      -0.011365  -0.002484  -0.004722  -0.004963  -0.002561  -0.008355
     51       0.002698  -0.032889   0.015208   0.038390   0.021612   0.082545
     52      -0.007205  -0.086748  -0.001251  -0.013865  -0.010294  -0.034915
     53       0.008468   0.035615   0.004666   0.019579   0.003099   0.042132
     54       0.000213   0.044248  -0.010436  -0.021960  -0.012565  -0.043623
     55       0.013641   0.086678   0.001101   0.008546   0.007728   0.020897
     56       0.020202  -0.032427   0.011223   0.005597   0.011875  -0.002217
     57      -0.020316   0.048027  -0.019387  -0.033024  -0.020751  -0.054399
     58       0.020033   0.085303   0.003756   0.011901   0.010252   0.019423
     59       0.002496  -0.030193   0.002434  -0.002920   0.001454  -0.015360
     60      -0.046218  -0.204286  -0.008434  -0.029963  -0.022079  -0.047445
     61      -0.009178  -0.174421   0.013191   0.011730   0.006721   0.021705
     62      -0.106898  -0.023045  -0.064913  -0.119049  -0.073403  -0.167360
     63       0.051617  -0.173747   0.044506   0.054318   0.051954   0.091390
     64      -0.047578  -0.197606  -0.009929  -0.025799  -0.030499  -0.050168
     65       0.052428  -0.323391   0.059459   0.069345   0.058975   0.104913
     66       0.068947   0.103687   0.030630   0.054204   0.049792   0.092125
     67      -0.027511  -0.056535  -0.010718  -0.019938  -0.019517  -0.038255
     68       0.038959   0.471173  -0.030142  -0.033080  -0.005380  -0.039241
     69       0.058403  -0.174820   0.037148   0.016484   0.029540  -0.018265
     70      -0.060095  -0.162728  -0.007951   0.004402  -0.014528   0.026276
     71      -0.003060   0.051563  -0.007216  -0.008745  -0.004698  -0.011268
     72      -0.074460  -0.399176   0.012272   0.018270  -0.010299   0.020517
     73       0.043515   0.122640   0.007024   0.005276   0.017325   0.004358
     74      -0.026520   0.131028  -0.024547  -0.016792  -0.022668  -0.000663
     75      -0.038051   0.303207  -0.045740  -0.032398  -0.041974  -0.024818
     76      -0.008748  -0.364196   0.029083   0.019439   0.017414   0.022507
     77      -0.034709  -0.032800  -0.010915  -0.002482  -0.015288   0.013992
     78       0.249180  -0.033525  -0.344205   0.059806  -0.258949   0.169517
     79       0.114022  -0.013660  -0.146628   0.041678  -0.144475   0.094902
     80      -0.002655   0.001072   0.000854   0.004864  -0.011208   0.003775
     81      -0.013491  -0.001877   0.056881   0.048811  -0.036729  -0.108055
     82      -0.256086   0.020476   0.225926   0.282570  -0.094443  -0.297113
     83      -0.152136   0.006829   0.108877   0.144203  -0.059924  -0.161732
     84      -0.421747   0.058319   0.313298   0.364915  -0.025221   0.055165
     85       0.272432  -0.044019  -0.227804  -0.257970   0.000766  -0.050308
     86       0.270210  -0.039960  -0.218681  -0.241704   0.008333  -0.045605
     87       0.486738   0.006616   0.387255   0.285738  -0.045815  -0.060152
     88       0.183520   0.004977   0.188525   0.009832   0.051449  -0.024961
     89      -0.018247   0.001158   0.009617  -0.052513   0.036099   0.002285
     90      -0.162827  -0.001087  -0.132154   0.041384  -0.027518   0.109028
     91      -0.298609   0.000043  -0.327476   0.152469   0.165476   0.456628
     92      -0.139334   0.000976  -0.162941   0.066473   0.118166   0.256955
     93       0.052278  -0.005614  -0.288375   0.432131   0.559060  -0.413760
     94       0.012578  -0.001744  -0.126440   0.185390   0.257725  -0.181694
     95      -0.005755  -0.000042  -0.009436   0.010925   0.024326  -0.016955
     96       0.061468  -0.002344   0.152152  -0.121160  -0.376891   0.151038
     97      -0.005970   0.003229  -0.073497   0.079682   0.285833  -0.060582
     98      -0.012657   0.002502  -0.087011   0.084744   0.273318  -0.073914
     99      -0.059343   0.004946   0.088062  -0.148822   0.078892   0.054618
    100      -0.057609   0.007316   0.203372  -0.287370   0.153434   0.093857
    101      -0.025884   0.003417   0.111754  -0.153822   0.083443   0.047013
    102      -0.034016   0.002535   0.032964  -0.081645  -0.079666   0.079751
    103       0.025330   0.006598   0.080191  -0.113837  -0.141600   0.308061
    104       0.025412   0.004127   0.044635  -0.055713  -0.077649   0.182142
                 66         67         68         69         70         71    
      0       0.003435   0.024683  -0.055147  -0.095113   0.059895  -0.027481
      1      -0.002556   0.026687   0.024669  -0.111794  -0.008547  -0.053663
      2      -0.003679   0.013174   0.033085  -0.048863  -0.018935  -0.027138
      3       0.016610  -0.015582  -0.005908  -0.024433   0.016164  -0.057181
      4       0.023288  -0.050220  -0.025963   0.067008   0.006825   0.017808
      5       0.010854  -0.027434  -0.015723   0.047792   0.000047   0.024933
      6       0.000261   0.002121  -0.044425   0.061797  -0.006820   0.073126
      7       0.010902  -0.029798  -0.013265  -0.053593   0.015577   0.000632
      8       0.007820  -0.019838   0.003084  -0.049239   0.010591  -0.018245
      9       0.008629  -0.088656   0.059220   0.242682  -0.115069   0.121994
     10      -0.032696   0.047960   0.191894  -0.011807  -0.031859   0.075382
     11      -0.020301   0.046388   0.107579  -0.057198   0.004809   0.025884
     12      -0.010327   0.008286   0.057160  -0.045318  -0.070179  -0.159293
     13       0.044952  -0.022354  -0.030660   0.108108  -0.159662  -0.121518
     14       0.030521  -0.016680  -0.034152   0.074730  -0.083613  -0.039216
     15       0.012888   0.014860   0.005732  -0.026272  -0.006189  -0.010853
     16      -0.005586  -0.026590  -0.074826   0.031081   0.020618  -0.011467
     17      -0.012025  -0.020782  -0.062031   0.021180   0.014864  -0.012775
     18      -0.101130   0.152240  -0.027810  -0.099168  -0.041262  -0.027802
     19      -0.037429   0.092435  -0.005827   0.102562   0.007421   0.044866
     20       0.001182   0.020627   0.003160   0.091068   0.014778   0.035814
     21      -0.006689   0.008382   0.034508   0.079075   0.047557   0.134674
     22      -0.014763  -0.004891   0.014642  -0.022505   0.058907   0.069291
     23      -0.008001  -0.004441   0.001628  -0.034640   0.024965   0.007972
     24      -0.012058  -0.060592   0.053467   0.005784   0.010237  -0.082065
     25       0.024062   0.020509  -0.047252  -0.058924  -0.082086  -0.094479
     26       0.018009   0.028150  -0.042738  -0.038226  -0.053971  -0.038137
     27       0.036923   0.030822  -0.052287   0.020296   0.264190   0.129397
     28      -0.028026  -0.100453   0.034355  -0.217039   0.127060   0.059211
     29      -0.026665  -0.069313   0.033182  -0.141056   0.015073   0.005280
     30       0.011240   0.087025  -0.118902  -0.143403  -0.226398  -0.007324
     31      -0.113671   0.069933   0.073194   0.055331  -0.050357   0.077484
     32      -0.071966   0.020525   0.074635   0.070479   0.026175   0.049451
     33      -0.021688  -0.006479   0.021938   0.015583   0.043674  -0.040537
     34       0.040759   0.050627  -0.065898   0.055190   0.111199  -0.004095
     35       0.030473   0.032981  -0.046381   0.029748   0.057423   0.008444
     36      -0.016892  -0.037761   0.019166  -0.069981  -0.093230   0.086504
     37      -0.021197  -0.017011   0.039783  -0.010326  -0.084913  -0.005606
     38      -0.008771  -0.001021   0.019890   0.011306  -0.030095  -0.024693
     39       0.032683  -0.010371  -0.021896  -0.023881   0.072286  -0.019307
     40       0.032589  -0.005971  -0.046782  -0.045576  -0.090530   0.070602
     41       0.011679  -0.000355  -0.023285  -0.021853  -0.074638   0.048434
     42       0.003088  -0.030399   0.044276   0.088562   0.037054  -0.048175
     43      -0.014592   0.003705   0.043594   0.112976   0.181631  -0.159330
     44      -0.010209   0.010543   0.016120   0.047743   0.103093  -0.086788
     45       0.030192   0.028908   0.023480   0.010558  -0.003030  -0.008108
     46      -0.026933  -0.019902  -0.011298  -0.001727  -0.001536   0.005141
     47      -0.008162  -0.016837  -0.031790   0.011681  -0.004568  -0.005577
     48       0.008625   0.000261   0.010122  -0.007897   0.004536   0.006253
     49       0.012915   0.006039   0.005834  -0.001737   0.003047   0.000288
     50       0.053313   0.023425   0.047611  -0.025012   0.018456   0.013283
     51      -0.227307  -0.065540  -0.064046  -0.019048   0.025598   0.000752
     52       0.083494   0.015698   0.008929   0.032214  -0.031845  -0.003461
     53      -0.166135  -0.073614  -0.091874   0.064131  -0.052391  -0.009702
     54       0.110840   0.029310   0.027895   0.009990  -0.013579   0.000085
     55      -0.044471  -0.005986  -0.003543  -0.016547   0.017359   0.001189
     56       0.067926   0.042060   0.053672  -0.034813   0.028748   0.004927
     57       0.111508   0.022919   0.016535   0.012644  -0.014622  -0.001338
     58      -0.026059   0.003314   0.008872  -0.020458   0.018984   0.002308
     59       0.079630   0.038505   0.049945  -0.033975   0.026525   0.005798
     60       0.081743   0.005871  -0.002339   0.022942  -0.018086   0.000806
     61      -0.053667  -0.016216  -0.015028  -0.005106   0.011277   0.003218
     62       0.285764   0.030620  -0.000665   0.091062  -0.073410  -0.011650
     63      -0.126231  -0.004200   0.011816  -0.019726   0.022508  -0.003875
     64       0.058136  -0.018751  -0.038430   0.087529  -0.092786  -0.012622
     65      -0.129096   0.002153   0.026477  -0.026068   0.022322  -0.002216
     66      -0.123083   0.013047   0.039130  -0.100248   0.105328   0.015865
     67       0.068315   0.006196   0.000764   0.020414  -0.025447  -0.002108
     68       0.089725   0.026811   0.017014   0.032549  -0.035728  -0.011193
     69       0.216316   0.119364   0.137677  -0.075337   0.059624   0.001914
     70      -0.173509  -0.090778  -0.102353   0.060722  -0.052665  -0.001545
     71       0.022591   0.004971   0.008219   0.000837  -0.001880   0.003625
     72      -0.113381  -0.054310  -0.059758   0.003393   0.010924   0.000122
     73       0.067455   0.050634   0.066509  -0.051558   0.042161   0.008626
     74      -0.123504  -0.083768  -0.115454   0.097699  -0.083528  -0.021186
     75      -0.105013  -0.086850  -0.119266   0.075276  -0.057798  -0.012761
     76      -0.022758  -0.006017  -0.008324   0.045688  -0.050765  -0.010212
     77      -0.140699  -0.082636  -0.108741   0.081914  -0.068915  -0.016822
     78       0.118376  -0.376302   0.258640  -0.332357   0.036314  -0.231538
     79       0.067380  -0.201851   0.120144  -0.229351   0.038074  -0.135956
     80       0.004794  -0.020251   0.006939  -0.052860   0.014466  -0.018493
     81       0.024271   0.039643  -0.210326  -0.068472   0.166035  -0.013939
     82       0.066158   0.114185  -0.530871  -0.024922   0.401019   0.012784
     83       0.040304   0.044235  -0.288669   0.024070   0.190582   0.009614
     84       0.102402  -0.059621   0.118719   0.045616   0.016092   0.018461
     85      -0.027735  -0.028516  -0.118238   0.024642   0.012810  -0.039059
     86      -0.050490   0.001193  -0.085873  -0.003174   0.002170  -0.017281
     87       0.365036  -0.534201   0.011167   0.311917   0.069107  -0.324815
     88       0.113248  -0.190353   0.003595   0.053897   0.067966  -0.091550
     89      -0.014248   0.002284   0.004110  -0.040634   0.029693   0.020769
     90       0.101144  -0.096983  -0.035781  -0.010435   0.011881  -0.011699
     91       0.450453  -0.107413  -0.397125  -0.136535  -0.077055   0.192902
     92       0.250258  -0.042062  -0.231696  -0.076951  -0.039721   0.122258
     93      -0.085792  -0.056815   0.089127   0.072792  -0.238999  -0.228733
     94      -0.048163  -0.021970   0.068058   0.054832  -0.159781  -0.140615
     95      -0.010044  -0.001313   0.020716   0.015648  -0.038346  -0.035483
     96       0.010827   0.121404  -0.070072   0.208652   0.012753  -0.001361
     97       0.050692  -0.100423  -0.013446  -0.209991  -0.053947   0.060267
     98       0.030668  -0.092248   0.006570  -0.179966  -0.030723   0.039352
     99       0.068745  -0.139581   0.019913  -0.009926  -0.125507   0.176891
    100       0.180753  -0.331751  -0.032919  -0.202591  -0.317625   0.580501
    101       0.099932  -0.180394  -0.023545  -0.130615  -0.167839   0.322197
    102      -0.018169   0.067065   0.033604   0.107829  -0.091302  -0.042849
    103       0.060412   0.252750  -0.051848   0.313285  -0.319185  -0.014889
    104       0.041369   0.149831  -0.043928   0.174704  -0.186676  -0.001093
                 72         73         74         75         76         77    
      0      -0.027315  -0.023771   0.001592   0.012325   0.041778   0.032199
      1      -0.109002  -0.052359   0.004720   0.016397   0.041569   0.018471
      2      -0.064450  -0.027094   0.002717   0.007062   0.014129   0.002892
      3      -0.165407   0.024131   0.000009  -0.022646  -0.048194  -0.038907
      4       0.026687   0.016316  -0.000902   0.006539   0.052567   0.047492
      5       0.058006   0.003707  -0.000623   0.009688   0.045256   0.039596
      6       0.200022   0.024176  -0.004035  -0.007949  -0.069434  -0.043937
      7       0.106121   0.004207  -0.002238  -0.008165  -0.063217  -0.047596
      8       0.019344  -0.003783  -0.000442  -0.003455  -0.022204  -0.018808
      9       0.119890   0.019651   0.000338   0.021994   0.025200   0.012678
     10       0.108112  -0.037027  -0.002054  -0.003894  -0.061713  -0.052050
     11       0.045960  -0.030146  -0.001929  -0.006739  -0.043799  -0.036350
     12      -0.142971   0.060649  -0.004285  -0.029624  -0.051937  -0.023321
     13       0.149781   0.029620  -0.005339  -0.040906   0.015316   0.013475
     14       0.128224   0.004476  -0.002173  -0.018657   0.021431   0.014127
     15       0.017149  -0.024315  -0.000452  -0.006965  -0.009241  -0.003924
     16      -0.038639   0.031905   0.001412   0.003228   0.017812   0.016073
     17      -0.034702   0.023978   0.001960   0.002326   0.012970   0.012858
     18       0.107774  -0.050136   0.003939   0.028202   0.039963   0.018012
     19      -0.272646   0.019668   0.003956   0.002590   0.025619   0.021725
     20      -0.198333   0.024989   0.001584  -0.005505   0.006453   0.009475
     21      -0.066036  -0.013939  -0.000406   0.006538   0.044072   0.033023
     22       0.041926  -0.024286   0.002207   0.050455   0.003030  -0.000357
     23       0.042388  -0.011539   0.001469   0.030682  -0.009258  -0.008393
     24       0.007986   0.017692  -0.002661  -0.040997  -0.022941  -0.015547
     25       0.069279  -0.001478  -0.003606  -0.072398   0.029178   0.021007
     26       0.041069  -0.005428  -0.001473  -0.034781   0.023999   0.017024
     27       0.001556  -0.061830   0.001139  -0.025313   0.019613  -0.001515
     28      -0.004194  -0.044109   0.005502   0.073458  -0.021514  -0.019366
     29      -0.001213  -0.012979   0.003191   0.051319  -0.017522  -0.011341
     30      -0.009077   0.010954   0.002284   0.024348   0.011054   0.011493
     31      -0.078050   0.032051  -0.003799  -0.038064  -0.017038  -0.008067
     32      -0.045388   0.017109  -0.002928  -0.029812  -0.013463  -0.008033
     33       0.032737   0.006286   0.001024   0.033822  -0.002858   0.005583
     34       0.052503  -0.007670  -0.000721  -0.026852   0.026200   0.022705
     35       0.024422  -0.006076  -0.000706  -0.024888   0.016850   0.012757
     36      -0.083771   0.009187  -0.001765  -0.048520  -0.001795  -0.007899
     37      -0.037214   0.011527  -0.003465  -0.065959  -0.006409  -0.010128
     38      -0.002417   0.005005  -0.001617  -0.028279  -0.003535  -0.004298
     39       0.057556  -0.016194  -0.005169  -0.111907   0.015176   0.006020
     40      -0.008825   0.010576   0.003011   0.092881  -0.006210   0.004397
     41      -0.019819   0.010525   0.003193   0.084800  -0.007486   0.001177
     42       0.008599   0.005507   0.002532   0.061174  -0.010446  -0.004727
     43       0.051529  -0.025288   0.003625   0.021145   0.001484  -0.005676
     44       0.029752  -0.017141   0.001708  -0.001962   0.003596  -0.002355
     45      -0.034268  -0.110651  -0.005877  -0.005325   0.009603  -0.045374
     46       0.017584   0.067927  -0.001471   0.004904   0.002952   0.019781
     47      -0.008251   0.011054  -0.013741   0.003251   0.027575  -0.019151
     48       0.014484   0.042298   0.003686   0.001912  -0.007406   0.017351
     49      -0.001339  -0.001781   0.000117  -0.000221   0.000012  -0.000955
     50       0.026523   0.078208   0.006340   0.002769  -0.015528   0.029318
     51       0.011780   0.101924   0.025833   0.002784   0.007404   0.012763
     52      -0.016907  -0.113173  -0.009484  -0.004019  -0.004075  -0.018319
     53      -0.030839  -0.163915   0.025683  -0.007978  -0.000889  -0.025427
     54      -0.002152  -0.048275   0.080811  -0.010712  -0.033339   0.028350
     55       0.005628   0.055361  -0.053831   0.007914   0.022851  -0.013083
     56       0.014209   0.075445   0.005507   0.002513  -0.004840   0.019802
     57      -0.003287  -0.029824   0.016402  -0.000446   0.035500  -0.056717
     58       0.007291   0.050934  -0.002781   0.001887  -0.002038   0.007962
     59       0.020768   0.107671   0.029078   0.005826   0.065929  -0.058713
     60      -0.000154  -0.009959  -0.041310   0.001642  -0.072628   0.182460
     61       0.008498   0.062110  -0.057629   0.003671  -0.106914   0.243067
     62      -0.066747  -0.333896  -0.235185  -0.012927  -0.372402   0.396813
     63      -0.027589  -0.133276  -0.178657  -0.009503  -0.263742   0.222344
     64      -0.032308  -0.301607   0.002558  -0.013618   0.004398  -0.064638
     65      -0.019045  -0.127971  -0.167929  -0.008674  -0.232191   0.190362
     66       0.042504   0.335729  -0.084197   0.016328  -0.128969   0.336078
     67      -0.001473  -0.038727   0.088174  -0.001607   0.142195  -0.233350
     68      -0.043027  -0.299603  -0.205449  -0.014357  -0.286389   0.273786
     69       0.009192   0.109828  -0.422241   0.042758   0.138496  -0.184211
     70      -0.006141  -0.105837   0.352107  -0.035529  -0.148652   0.158013
     71       0.007985   0.004724   0.195768  -0.018352  -0.069522   0.096496
     72       0.003256   0.138584  -0.462137   0.058117   0.130602  -0.058998
     73       0.025559   0.116445   0.118911  -0.006838  -0.044995   0.070810
     74      -0.061044  -0.303424  -0.150407  -0.002134   0.099373  -0.206716
     75      -0.033827  -0.123996  -0.307063   0.026761   0.082509  -0.116235
     76      -0.034084  -0.267649   0.304788  -0.047654  -0.056592  -0.050583
     77      -0.048693  -0.235612  -0.170402   0.005174   0.070894  -0.167577
     78      -0.095714  -0.144202   0.008220   0.058637   0.345479   0.240351
     79      -0.021632  -0.066435   0.002587   0.017031   0.106842   0.067325
     80       0.006214  -0.007759   0.000482  -0.000294  -0.013022  -0.012233
     81      -0.006196   0.037485  -0.003014  -0.016137  -0.022694  -0.000135
     82      -0.024305   0.182628  -0.011764  -0.102493  -0.254959  -0.139883
     83       0.001415   0.109812  -0.007984  -0.059033  -0.143218  -0.081099
     84      -0.102019  -0.101520   0.007630   0.069555   0.318182   0.238344
     85      -0.025776   0.103773  -0.006140  -0.056185  -0.187701  -0.133594
     86       0.004754   0.087305  -0.005302  -0.050303  -0.203345  -0.149221
     87      -0.547388   0.144353   0.008314   0.027260  -0.165373  -0.110704
     88      -0.120739   0.028684   0.005981   0.067204  -0.072631  -0.053050
     89       0.050758  -0.016709   0.001201   0.026942  -0.002447  -0.004481
     90      -0.047128   0.030612   0.002645   0.054989  -0.069499  -0.047466
     91      -0.109288   0.029331   0.016217   0.281684  -0.123605  -0.084967
     92      -0.055875   0.011299   0.009616   0.166560  -0.062447  -0.042955
     93       0.164353   0.034611   0.015936   0.477472  -0.065504  -0.006538
     94       0.072171   0.024477   0.003661   0.154457  -0.034744  -0.009981
     95       0.004659   0.007063  -0.001850  -0.024552  -0.004607  -0.004030
     96       0.043127   0.019775   0.020701   0.471407  -0.033261   0.008106
     97       0.002636  -0.015032  -0.015135  -0.310758   0.026954   0.002898
     98      -0.009751  -0.012622  -0.014386  -0.311204   0.025130   0.000241
     99      -0.030696   0.034278  -0.004712  -0.011335  -0.009172   0.002324
    100      -0.082912   0.061381  -0.020708  -0.250887   0.014005   0.018840
    101      -0.045551   0.029546  -0.012102  -0.152445   0.009067   0.010897
    102      -0.124165   0.015275   0.004300   0.077341  -0.029524  -0.027859
    103      -0.392148   0.033465   0.006734   0.101471  -0.049673  -0.067837
    104      -0.220163   0.018499   0.004854   0.045560  -0.023927  -0.038786
                 78         79         80         81         82         83    
      0      -0.004543  -0.011626  -0.003937  -0.019057  -0.067303  -0.019693
      1       0.002922   0.017398   0.007716   0.039293   0.122534  -0.035012
      2       0.003000   0.013609   0.005680   0.028770   0.093428  -0.016733
      3       0.004808   0.004033  -0.001482  -0.020203   0.142026   0.054630
      4      -0.008355  -0.020190  -0.005713  -0.029049  -0.129334   0.003957
      5      -0.006372  -0.013682  -0.003203  -0.013448  -0.117022  -0.011186
      6       0.003392   0.004620   0.001251   0.019759  -0.071630  -0.052545
      7       0.005142   0.006193   0.000239   0.002590   0.026000   0.005636
      8       0.002327   0.002419  -0.000306  -0.004219   0.032941   0.016540
      9       0.004380   0.035989   0.020751   0.110663   0.113259  -0.003255
     10       0.005814   0.006814  -0.002274  -0.001131  -0.013462   0.017265
     11       0.003023  -0.003350  -0.005851  -0.023506  -0.030759   0.013726
     12      -0.004806  -0.036694  -0.019600  -0.103610  -0.098996  -0.012310
     13      -0.003916  -0.016220  -0.007623  -0.042113  -0.023738   0.022602
     14      -0.001253  -0.001137  -0.000064  -0.001276   0.008680   0.016456
     15       0.000769  -0.002973  -0.003837  -0.011568  -0.014455   0.009913
     16      -0.003508  -0.002545   0.002137   0.001380  -0.006107  -0.008879
     17      -0.002014  -0.002187   0.002089  -0.000347  -0.005617  -0.007996
     18       0.002996   0.023538   0.012139   0.065247   0.031821  -0.003953
     19      -0.000546   0.009365   0.006678   0.035210   0.031772  -0.043161
     20      -0.001058   0.000278   0.001314   0.006438   0.012326  -0.026016
     21      -0.006705  -0.025346  -0.011810  -0.066495  -0.034297   0.042858
     22      -0.000114  -0.000947  -0.000760  -0.001791  -0.051051   0.020403
     23       0.001500   0.005442   0.002351   0.014924  -0.024833   0.002177
     24       0.001001  -0.003108  -0.002652  -0.017596   0.042187  -0.009325
     25      -0.002892  -0.011658  -0.005624  -0.039289   0.084434   0.015777
     26      -0.002046  -0.006454  -0.002811  -0.020138   0.042606   0.011966
     27       0.002150   0.002072  -0.001101  -0.017422   0.020973   0.047548
     28       0.003989   0.013774   0.005834   0.034300  -0.030616   0.017030
     29       0.001964   0.008223   0.004050   0.026325  -0.023346  -0.001296
     30       0.002104   0.025267   0.015830   0.094520  -0.027149  -0.024836
     31      -0.001134  -0.007637  -0.003727  -0.017248  -0.013800  -0.029940
     32      -0.001224  -0.011208  -0.006382  -0.034993  -0.001444  -0.012236
     33      -0.002421  -0.010163  -0.004903  -0.023874   0.048025  -0.031624
     34      -0.002825  -0.007857  -0.003332  -0.020140   0.115530  -0.048618
     35      -0.001180  -0.002433  -0.000872  -0.006297   0.059424  -0.022530
     36       0.003841   0.023564   0.012522   0.071120  -0.058916   0.018070
     37       0.002382   0.013354   0.007218   0.041149  -0.081295   0.020058
     38       0.000516   0.002329   0.001259   0.007577  -0.035016   0.007951
     39      -0.000388   0.000741   0.000727   0.003776  -0.001864  -0.014878
     40      -0.003624  -0.024539  -0.013354  -0.076577   0.061957   0.000401
     41      -0.002108  -0.015310  -0.008483  -0.048371   0.039145   0.004024
     42      -0.000666  -0.007409  -0.004523  -0.025182   0.004988   0.009629
     43       0.004393   0.027239   0.014377   0.082892  -0.058158   0.009531
     44       0.002904   0.018867   0.010080   0.058053  -0.037116   0.003480
     45       0.003688   0.002597  -0.003895  -0.022896   0.003164   0.046445
     46      -0.002076  -0.001416   0.002635   0.015897   0.000259  -0.017384
     47       0.000661   0.004331   0.001002   0.001772   0.009817   0.030482
     48      -0.000986  -0.001508   0.000703   0.007570  -0.002815  -0.022886
     49       0.000573   0.000001  -0.000293  -0.001818  -0.000312  -0.000310
     50      -0.002735  -0.003086  -0.000987   0.009726  -0.008094  -0.045756
     51      -0.003794  -0.017450   0.014107   0.009019  -0.009497  -0.039173
     52       0.007833  -0.012869  -0.000512   0.004317   0.013803   0.045632
     53       0.004617   0.009168   0.004774  -0.009556   0.019007   0.069684
     54       0.024977  -0.019873   0.001195   0.004316  -0.000333   0.002882
     55       0.027559  -0.017010   0.024641   0.003898   0.002022   0.001681
     56      -0.019835   0.009517   0.030944  -0.005897   0.004194   0.010827
     57      -0.017968  -0.010531   0.023447  -0.007858  -0.001971  -0.004129
     58      -0.021388  -0.033268  -0.019133   0.032126   0.005362   0.004808
     59       0.008884   0.012583  -0.016547  -0.000460   0.001569   0.003432
     60       0.278019   0.327170  -0.117554  -0.141621   0.002875   0.080177
     61       0.281129   0.316570  -0.148480  -0.114629   0.006262   0.079456
     62      -0.118439  -0.264700  -0.196399   0.289131   0.091100   0.190134
     63      -0.212366  -0.276259   0.094377   0.131473  -0.025503  -0.140927
     64       0.173361   0.355125   0.338073  -0.416819  -0.140244  -0.290978
     65      -0.137779  -0.139632   0.177555  -0.002440  -0.069394  -0.233027
     66       0.240939   0.187189  -0.357489   0.084739   0.070457   0.216304
     67      -0.138866  -0.145330   0.098132   0.033776  -0.001613  -0.028420
     68       0.069693   0.191405   0.262861  -0.261135  -0.130489  -0.319893
     69      -0.267844   0.215511  -0.274194  -0.041886  -0.058717  -0.175954
     70      -0.479003   0.325252  -0.046066  -0.098447   0.027285   0.112366
     71       0.094183  -0.080949   0.127044   0.012230   0.024139   0.072942
     72       0.143531  -0.084395   0.341838   0.012330   0.107608   0.289821
     73      -0.140954   0.087576   0.024026  -0.031205   0.004344   0.018923
     74       0.404038  -0.260428  -0.250365   0.096634  -0.086365  -0.263740
     75      -0.253374   0.215271  -0.130048  -0.050484   0.007986   0.030536
     76       0.156896  -0.131046  -0.349284   0.058649  -0.119729  -0.342338
     77      -0.208970   0.174720  -0.361371  -0.025400  -0.068584  -0.189937
     78      -0.025463  -0.045754  -0.011201  -0.082549  -0.125360   0.120599
     79      -0.006872  -0.016409  -0.006519  -0.048417   0.010481   0.085965
     80       0.002169   0.004234   0.000867   0.001365   0.041179   0.019712
     81      -0.007163  -0.035783  -0.016309  -0.086316  -0.165396   0.023665
     82      -0.002392  -0.069190  -0.040524  -0.219467  -0.216218   0.142263
     83      -0.001059  -0.034772  -0.020352  -0.109924  -0.098331   0.079302
     84      -0.028367  -0.048008  -0.009833  -0.044530  -0.293128  -0.052053
     85       0.012612   0.010277  -0.002019  -0.023662   0.150219   0.081562
     86       0.016428   0.023308   0.002887   0.005508   0.188574   0.063037
     87       0.021037   0.081564   0.039111   0.222180   0.087406  -0.166125
     88       0.010226   0.040121   0.018658   0.109520  -0.014844  -0.055364
     89       0.000809   0.002413   0.000861   0.005958  -0.026846   0.011099
     90       0.006858   0.023763   0.010868   0.068001  -0.036460  -0.039747
     91       0.017388   0.082461   0.042400   0.262867  -0.202849  -0.081689
     92       0.009335   0.046808   0.024274   0.150650  -0.121332  -0.041872
     93      -0.011767  -0.095580  -0.053040  -0.289506   0.108241   0.004749
     94      -0.004583  -0.039363  -0.021751  -0.118203  -0.012681   0.014996
     95       0.000111  -0.000828  -0.000148  -0.000582  -0.038608   0.008388
     96      -0.009387  -0.065609  -0.035869  -0.202443   0.187937  -0.012310
     97       0.002270   0.018671   0.010597   0.057633  -0.067533   0.000688
     98       0.003935   0.029767   0.016516   0.092879  -0.091593   0.000742
     99      -0.006596  -0.044310  -0.024163  -0.138576   0.071874  -0.001600
    100      -0.013783  -0.084394  -0.044923  -0.261691   0.155407  -0.029147
    101      -0.007260  -0.043510  -0.023084  -0.133202   0.080324  -0.017375
    102       0.004154   0.006689   0.002281   0.005926  -0.152968   0.093402
    103       0.012384   0.039775   0.019224   0.081809  -0.473897   0.316393
    104       0.009055   0.027006   0.011866   0.050436  -0.270136   0.179773
                 84         85         86         87         88         89    
      0       0.061366   0.005973  -0.041384  -0.042653   0.018278   0.005680
      1       0.046586  -0.010194  -0.112294  -0.249540   0.004165   0.013451
      2       0.013118  -0.008377  -0.058746  -0.146289  -0.002643   0.009553
      3      -0.134218   0.032800   0.087898  -0.054976  -0.041864   0.009509
      4       0.006057   0.020435   0.044393   0.139376   0.006043  -0.005048
      5       0.038189   0.004676   0.005471   0.100902   0.014553  -0.006997
      6       0.133852  -0.127260  -0.129282  -0.047876   0.045976  -0.007128
      7       0.004847  -0.030788  -0.037703  -0.090947   0.011087   0.001822
      8      -0.029107   0.011408   0.008026  -0.046705  -0.004400   0.001774
      9      -0.083530  -0.044699   0.022926   0.079802  -0.063056  -0.027206
     10      -0.005014  -0.020688   0.069595   0.172896  -0.001248  -0.031578
     11       0.014069   0.000667   0.038275   0.090861   0.013771  -0.025062
     12       0.079187  -0.051614   0.037457  -0.052264   0.055112  -0.000674
     13      -0.018112   0.090541   0.018260  -0.180133   0.039314   0.016504
     14      -0.029863   0.070873   0.000953  -0.099377   0.012654   0.011045
     15       0.006769   0.015003  -0.003538  -0.004803   0.010236  -0.003902
     16      -0.005554  -0.005843  -0.004525  -0.018347  -0.006302   0.029840
     17      -0.004409  -0.005772  -0.004569  -0.016953  -0.005615   0.040100
     18      -0.012343   0.283385   0.024046   0.127761   0.001389   0.002068
     19       0.034875  -0.051331   0.004633   0.188869  -0.021086  -0.010348
     20       0.024142  -0.102506  -0.002068   0.087347  -0.013513  -0.007759
     21      -0.067620  -0.236256   0.069851  -0.229641  -0.036466   0.001273
     22      -0.018196   0.017178   0.064761  -0.162945  -0.019917   0.004846
     23       0.005546   0.070280   0.024908  -0.045607  -0.004487   0.002786
     24       0.020758   0.065426  -0.074625   0.121752   0.030117  -0.000516
     25      -0.049476  -0.138358  -0.112415   0.214572   0.057223  -0.006874
     26      -0.035860  -0.103443  -0.051523   0.104565   0.028571  -0.004687
     27      -0.046118   0.131893  -0.151728   0.007049   0.042833   0.013626
     28      -0.021427  -0.084478  -0.057370   0.085587  -0.061041  -0.003080
     29      -0.001832  -0.085417   0.001568   0.050950  -0.048974  -0.005921
     30      -0.005642  -0.135400   0.100563   0.029192  -0.093079  -0.010872
     31       0.067769   0.161697   0.048751  -0.086041  -0.060562   0.006475
     32       0.043418   0.134609   0.004760  -0.061662  -0.013597   0.006728
     33       0.035484  -0.028670   0.042239   0.017604  -0.074575  -0.002848
     34       0.038297  -0.002895   0.075992   0.011002   0.040684  -0.005267
     35       0.015085   0.004991   0.036911   0.002142   0.044725  -0.002522
     36      -0.040267   0.001318   0.024556  -0.030715   0.347016   0.004495
     37      -0.015675   0.004653  -0.012337  -0.031456   0.031201   0.002928
     38       0.000119   0.002883  -0.014360  -0.011747  -0.067344   0.000695
     39       0.034008  -0.004863   0.002526  -0.005301  -0.280395  -0.003184
     40      -0.000314   0.022976  -0.026204   0.041475   0.050338   0.000656
     41      -0.008702   0.015978  -0.017553   0.026948   0.100269   0.001072
     42      -0.010427   0.003765  -0.014080  -0.011771   0.091509   0.002498
     43      -0.026314  -0.081978   0.031092  -0.041883   0.038863  -0.002192
     44      -0.013789  -0.051564   0.022609  -0.023029   0.001294  -0.002180
     45       0.060450  -0.019073   0.037128   0.022177   0.005387  -0.126388
     46      -0.029989   0.012541  -0.023665  -0.019171  -0.003892  -0.130279
     47       0.016651   0.011662  -0.007068  -0.022426   0.001885  -0.679964
     48      -0.023447   0.002333  -0.009102  -0.001079  -0.002326   0.146772
     49       0.000767  -0.000238   0.002290   0.001291   0.000499   0.014220
     50      -0.042776   0.001382  -0.011082   0.002777  -0.003828   0.325486
     51      -0.040926   0.009297  -0.018316  -0.016578  -0.002639  -0.040530
     52       0.045871  -0.010297   0.018265   0.017655   0.002551   0.086799
     53       0.071346  -0.018049   0.026588   0.026540   0.002705   0.217504
     54       0.001628   0.001626   0.002173  -0.000538   0.001002  -0.041320
     55       0.000227  -0.000361  -0.001685  -0.000500  -0.000433   0.011759
     56       0.005667   0.000661  -0.001191  -0.002747  -0.000109  -0.037058
     57       0.000888  -0.001896   0.002611   0.003175   0.000432   0.015569
     58      -0.001900   0.002716  -0.003866  -0.003138  -0.000350  -0.009124
     59       0.003761  -0.002298  -0.001148   0.000952  -0.001076   0.022378
     60       0.077617  -0.016044   0.019347   0.010427   0.000076   0.010230
     61       0.067521  -0.010922   0.011109   0.002506  -0.001023  -0.015936
     62       0.111351   0.009346   0.001782   0.000603   0.005357  -0.049088
     63      -0.149107   0.037816  -0.038818  -0.032804  -0.000074  -0.188209
     64      -0.188592   0.005012  -0.001020  -0.006877  -0.001048  -0.037220
     65      -0.208887   0.038067  -0.041325  -0.035300  -0.001768  -0.150846
     66       0.150258  -0.010589   0.007274  -0.001248  -0.001079  -0.035367
     67      -0.014465  -0.002520   0.001610   0.008145   0.000463   0.092740
     68      -0.254660   0.035547  -0.032804  -0.037541  -0.001745  -0.222430
     69      -0.135015   0.010542  -0.020355  -0.008129  -0.004241   0.005400
     70       0.091626  -0.008578   0.014083   0.003730   0.001358  -0.022634
     71       0.053337  -0.002597   0.007622   0.000158   0.001951  -0.061884
     72       0.241063  -0.037723   0.034361   0.039078   0.001576   0.304458
     73       0.008805   0.002764  -0.003193  -0.007659  -0.000453  -0.069488
     74      -0.199851   0.016927  -0.018198  -0.004410  -0.000817   0.041580
     75       0.040222  -0.013716   0.012678   0.019634   0.000065   0.164525
     76      -0.276809   0.036342  -0.035595  -0.032144  -0.002344  -0.206474
     77      -0.136710   0.007417  -0.011075   0.001027  -0.002428   0.092923
     78      -0.236780   0.353266   0.234924   0.191221  -0.034985   0.009866
     79      -0.161848   0.169593   0.122748  -0.004376  -0.026205   0.006623
     80      -0.044063   0.032277   0.014278  -0.025177  -0.006820   0.007209
     81       0.006844   0.028591   0.054406   0.114179   0.016856   0.005185
     82      -0.188988   0.071044   0.281915   0.362075  -0.005264   0.035427
     83      -0.117561   0.034009   0.158987   0.202352  -0.007496   0.012352
     84       0.125145   0.043869   0.009691   0.154584   0.018334  -0.006400
     85      -0.176539   0.019783   0.114423   0.013773  -0.038071   0.005132
     86      -0.145527   0.004827   0.062569  -0.045034  -0.029072   0.006595
     87       0.235324   0.370763  -0.092360   0.412407   0.009808  -0.010320
     88       0.092810   0.255800   0.015741   0.059904  -0.006330   0.001702
     89      -0.007514   0.046300   0.025369  -0.065658  -0.005761   0.001905
     90       0.078259   0.194963   0.023944   0.009804  -0.015386   0.001419
     91       0.136932   0.293353   0.255716  -0.245058  -0.104961  -0.004015
     92       0.067210   0.138387   0.154293  -0.148362  -0.066136  -0.000874
     93       0.051513  -0.004523  -0.119225   0.099008  -0.446254  -0.003723
     94       0.026865   0.005241  -0.080953   0.021329  -0.337202  -0.000650
     95       0.003035   0.003841  -0.019180  -0.012591  -0.103245   0.000925
     96       0.004487   0.021160  -0.028761   0.071237   0.113175   0.000604
     97       0.020406   0.008550  -0.014031  -0.005629  -0.249582  -0.002034
     98       0.012359  -0.004097   0.008967  -0.024666  -0.172259  -0.000364
     99       0.029802   0.101200  -0.051628   0.006934   0.025966   0.002982
    100       0.103576   0.246101  -0.083802   0.013791  -0.207779  -0.000573
    101       0.058400   0.128968  -0.041575   0.009130  -0.136902  -0.000714
    102      -0.083636   0.044967  -0.184862   0.003515  -0.216270   0.011600
    103      -0.324431   0.206313  -0.609327  -0.037206  -0.360836   0.054311
    104      -0.185514   0.118256  -0.342568  -0.023104  -0.182875   0.035757
                 90         91         92         93         94         95    
      0       0.000002   0.000033   0.000112  -0.000109   0.000132   0.000325
      1      -0.000001   0.000014  -0.000015   0.000016  -0.000005   0.000048
      2       0.000007  -0.000026  -0.000034   0.000057  -0.000052  -0.000050
      3       0.000105   0.000058   0.000066  -0.000026  -0.000033   0.000472
      4       0.000161  -0.000052   0.000098  -0.000007  -0.000026   0.000421
      5       0.000073  -0.000063   0.000035   0.000010  -0.000012   0.000123
      6      -0.000040  -0.000215  -0.000046   0.000066  -0.000106  -0.000800
      7       0.000136   0.000299   0.000033  -0.000144   0.000204   0.001758
      8       0.000090   0.000172   0.000040  -0.000096   0.000157   0.001213
      9       0.000103  -0.000083   0.000008  -0.000005   0.000002   0.000234
     10      -0.000215   0.000160  -0.000054  -0.000012   0.000032  -0.000318
     11      -0.000216   0.000251  -0.000032  -0.000007   0.000030  -0.000146
     12      -0.000032   0.000040  -0.000036  -0.000007   0.000002  -0.000125
     13       0.000022  -0.000097  -0.000021   0.000013  -0.000023  -0.000019
     14       0.000041  -0.000043  -0.000004   0.000012  -0.000007   0.000059
     15      -0.000234   0.000350  -0.000020   0.000040   0.000141  -0.000164
     16       0.000207  -0.000322  -0.000056   0.000007  -0.000083   0.000228
     17       0.000286   0.000081   0.000060  -0.000132   0.000002   0.001081
     18      -0.000001   0.000063   0.000005   0.000004  -0.000017   0.000026
     19      -0.000043   0.000095   0.000006  -0.000003   0.000016  -0.000084
     20      -0.000002   0.000042   0.000007   0.000000   0.000015  -0.000051
     21      -0.000102   0.000071  -0.000050   0.000009   0.000036  -0.000095
     22       0.000023   0.000084   0.000063   0.000002  -0.000075   0.000047
     23       0.000068  -0.000060   0.000058   0.000004  -0.000083  -0.000012
     24      -0.000074  -0.000032   0.000133   0.000071   0.000203  -0.000125
     25       0.000055  -0.000023  -0.000030  -0.000024  -0.000027   0.000072
     26       0.000062  -0.000033  -0.000054  -0.000037  -0.000069   0.000029
     27       0.000031  -0.000018   0.000004  -0.000009  -0.000023  -0.000010
     28       0.000032  -0.000045   0.000005  -0.000010  -0.000010   0.000001
     29       0.000002   0.000003   0.000000  -0.000001  -0.000000   0.000005
     30      -0.000025  -0.000042   0.000012   0.000018   0.000004  -0.000012
     31      -0.000000  -0.000068   0.000016   0.000020  -0.000007  -0.000007
     32       0.000008  -0.000013   0.000017   0.000004   0.000002   0.000002
     33       0.000017  -0.000055   0.000007   0.000191  -0.000047   0.000233
     34      -0.000041   0.000014   0.000011  -0.000016   0.000006  -0.000063
     35      -0.000040   0.000052  -0.000001  -0.000059   0.000015  -0.000080
     36      -0.000022   0.000019   0.000020   0.000013  -0.000048   0.000036
     37       0.000068  -0.000040   0.000019   0.000010   0.000092   0.000121
     38       0.000041  -0.000008  -0.000002   0.000004   0.000065   0.000082
     39       0.000024  -0.000091  -0.000021  -0.000004  -0.000026  -0.000602
     40       0.000057  -0.000167  -0.000019  -0.000013  -0.000032  -0.000559
     41       0.000019  -0.000022  -0.000010  -0.000011  -0.000011  -0.000182
     42      -0.000018   0.000030   0.000031   0.000005   0.000044   0.000450
     43      -0.000043   0.000053   0.000002   0.000002   0.000005  -0.000068
     44      -0.000024   0.000051  -0.000012  -0.000005  -0.000007  -0.000149
     45       0.000474  -0.000987  -0.000378  -0.000146   0.000334  -0.000576
     46      -0.000769   0.001481  -0.000507  -0.000183  -0.000203   0.000018
     47      -0.001878   0.003452  -0.000954  -0.000337  -0.000161  -0.000608
     48       0.000270  -0.000338   0.000170   0.000029  -0.000431   0.000141
     49      -0.000007  -0.000178  -0.000010  -0.000054   0.000370  -0.000053
     50       0.000445  -0.001061   0.000386   0.000171   0.000348   0.000084
     51      -0.001636   0.000470   0.000161   0.000060  -0.000380  -0.000001
     52       0.001232  -0.000776   0.000552   0.000257   0.000433   0.000149
     53       0.000067  -0.002774   0.000120  -0.000017   0.000514   0.000571
     54      -0.030922   0.011431  -0.049471   0.014229   0.020299  -0.000057
     55       0.028441  -0.010593  -0.073361   0.021807   0.007606  -0.000401
     56       0.022853  -0.008855   0.018145  -0.005177   0.088859  -0.002010
     57      -0.003127  -0.010949  -0.016235  -0.056370  -0.001918  -0.063793
     58      -0.010510  -0.029431  -0.017339  -0.059690   0.001393   0.063235
     59      -0.014201  -0.039662   0.010456   0.035613  -0.000266   0.014116
     60       0.068900   0.193323  -0.021859  -0.076973   0.017953   0.680698
     61      -0.069140  -0.193387   0.016224   0.052049  -0.017888  -0.668377
     62      -0.002685  -0.001784   0.001179   0.006416  -0.000889  -0.005483
     63      -0.133057  -0.349745   0.152959   0.532445  -0.000302   0.154264
     64      -0.044890  -0.119860   0.045201   0.156770   0.000870   0.061256
     65       0.129567   0.350795  -0.158375  -0.538486  -0.001397  -0.156491
     66       0.105450   0.298731   0.064024   0.212095  -0.000141  -0.079207
     67       0.237199   0.662569   0.146267   0.499339   0.001506  -0.145455
     68       0.045938   0.136080   0.034727   0.112643  -0.000105  -0.026181
     69       0.108698  -0.038344  -0.002470   0.002548  -0.337356   0.008906
     70       0.001658   0.000233  -0.013667   0.004774  -0.000335  -0.000277
     71       0.289354  -0.097525   0.019662  -0.004547  -0.885064   0.022628
     72      -0.136883   0.047464   0.130623  -0.040891  -0.045813   0.001555
     73      -0.602165   0.219308   0.614027  -0.183559  -0.198259   0.003331
     74      -0.179092   0.064584   0.202876  -0.060660  -0.049694   0.001810
     75       0.409066  -0.151845   0.459673  -0.128195   0.153313  -0.001474
     76       0.254352  -0.091735   0.271970  -0.078654   0.098161  -0.002026
     77      -0.375300   0.137178  -0.438290   0.125825  -0.129587   0.002297
     78       0.000703   0.001472   0.000250  -0.000541   0.000958   0.008501
     79      -0.001333  -0.003227  -0.000419   0.001472  -0.002237  -0.019378
     80      -0.000822  -0.002737  -0.000248   0.001116  -0.001729  -0.014170
     81       0.000085  -0.000300  -0.001289   0.001067  -0.001552  -0.003287
     82      -0.000087   0.000343   0.000117  -0.000105   0.000130   0.000204
     83      -0.000088   0.000192   0.000447  -0.000302   0.000507   0.001162
     84      -0.001375  -0.000066  -0.000635   0.000128   0.000406  -0.004578
     85      -0.001372   0.000024  -0.000661   0.000121   0.000465  -0.004682
     86      -0.000538  -0.000079  -0.000258   0.000032   0.000168  -0.001853
     87       0.000233   0.000108   0.000306  -0.000001  -0.000286   0.000368
     88      -0.000631  -0.000276  -0.000774   0.000026   0.000836  -0.000884
     89      -0.000463  -0.000345  -0.000580  -0.000011   0.000631  -0.000691
     90       0.001040  -0.000098  -0.001528  -0.000825  -0.002432   0.001890
     91      -0.000129  -0.000131   0.000184   0.000118   0.000262  -0.000238
     92      -0.000324  -0.000015   0.000484   0.000268   0.000739  -0.000653
     93       0.000339  -0.000057  -0.000053  -0.000004   0.000432   0.000433
     94      -0.000560   0.000423   0.000011   0.000032  -0.000944  -0.001116
     95      -0.000360   0.000553  -0.000001   0.000032  -0.000688  -0.000749
     96      -0.000449   0.001303   0.000219   0.000057   0.000319   0.006237
     97      -0.000472   0.001563   0.000231   0.000081   0.000382   0.006682
     98      -0.000146   0.000733   0.000083   0.000030   0.000142   0.002678
     99       0.000135  -0.000282  -0.000288  -0.000061  -0.000528  -0.004798
    100       0.000023  -0.000202   0.000020   0.000029   0.000052   0.000302
    101       0.000029  -0.000003   0.000065  -0.000025   0.000171   0.001715
    102      -0.000294   0.000395  -0.000024  -0.001844   0.000550  -0.001994
    103       0.000329  -0.000390   0.000060   0.000289  -0.000161   0.000937
    104       0.000229  -0.000263  -0.000076   0.000229  -0.000169   0.000660
                 96         97         98         99        100        101    
      0       0.001461  -0.023171   0.006824   0.028029  -0.013227  -0.009364
      1       0.000064   0.000755  -0.000307  -0.000300   0.000330   0.001245
      2      -0.000403   0.007367  -0.002233  -0.008482   0.004048   0.003613
      3      -0.003725   0.025865  -0.004912  -0.040457   0.011806  -0.015412
      4      -0.004195   0.029156  -0.005398  -0.042033   0.011043  -0.014880
      5      -0.001631   0.011087  -0.002051  -0.015212   0.003662  -0.005083
      6      -0.002822   0.018083  -0.001540   0.008597  -0.011430   0.019629
      7       0.007025  -0.041838   0.002802  -0.015175   0.023721  -0.041041
      8       0.004911  -0.030161   0.002049  -0.011643   0.017423  -0.030170
      9       0.000060   0.000141   0.000047  -0.000280   0.000552  -0.000005
     10      -0.000182   0.000221  -0.000078  -0.000420   0.000314   0.000155
     11      -0.000152   0.000044  -0.000063  -0.000107  -0.000024   0.000197
     12      -0.000165   0.000589  -0.000454   0.000009  -0.000446   0.000282
     13       0.000058   0.000378  -0.000437   0.000147  -0.000139   0.000132
     14       0.000076   0.000061  -0.000148   0.000156  -0.000168   0.000409
     15      -0.000078  -0.000160  -0.000003   0.000024   0.000002  -0.000103
     16       0.000079   0.000084   0.000003   0.000079  -0.000017   0.000035
     17       0.000063   0.000159   0.000012   0.000123  -0.000083   0.000225
     18       0.000374   0.001311   0.000710   0.001744  -0.000323  -0.000824
     19      -0.000363   0.000269   0.000292   0.000511  -0.000235   0.000457
     20      -0.000318  -0.000250   0.000001  -0.000052  -0.000077   0.000425
     21       0.002482  -0.011608  -0.003944  -0.011509  -0.000661   0.015340
     22       0.000575   0.035915   0.013256   0.033565   0.001971  -0.044729
     23       0.000228   0.025664   0.009466   0.024096   0.001466  -0.031726
     24      -0.080285  -0.010607  -0.014569   0.002199  -0.001657  -0.005030
     25       0.007894   0.000018   0.000997  -0.000810   0.000162   0.001533
     26       0.024686   0.002590   0.004216  -0.001100   0.000522   0.002365
     27       0.000535   0.000135   0.000726   0.000443   0.001243   0.000028
     28      -0.000183  -0.000029   0.000595   0.000211   0.000088  -0.000078
     29      -0.000367  -0.000045   0.000114  -0.000039  -0.000432  -0.000098
     30       0.000183   0.000329  -0.000372   0.000325   0.000760   0.000778
     31      -0.001938  -0.000353  -0.000669   0.000063   0.001749   0.001097
     32      -0.001383  -0.000338  -0.000304   0.000009   0.000930   0.000375
     33       0.000384   0.000037  -0.001338   0.000361   0.001176  -0.000173
     34       0.000159   0.000015  -0.000665  -0.000023   0.000063   0.000466
     35      -0.000038  -0.000003  -0.000121  -0.000132  -0.000246   0.000254
     36      -0.000548  -0.000021   0.004992  -0.001152  -0.006811  -0.001996
     37       0.001659   0.000253  -0.013577   0.003713   0.014916   0.003924
     38       0.001158   0.000159  -0.009678   0.002568   0.010972   0.002862
     39      -0.009001  -0.003266   0.050177  -0.015129  -0.015317   0.002114
     40      -0.008807  -0.003677   0.050751  -0.016430  -0.018736   0.001271
     41      -0.003277  -0.001485   0.018915  -0.006454  -0.007832   0.000107
     42       0.009029  -0.006081  -0.029168  -0.016337  -0.066887  -0.025780
     43      -0.001229   0.000724   0.003305   0.002461   0.008296   0.003067
     44      -0.003063   0.001986   0.009500   0.005652   0.022250   0.008436
     45       0.000164   0.000073  -0.000014  -0.000103   0.000167  -0.000177
     46      -0.000079  -0.000006   0.000000   0.000076  -0.000130   0.000159
     47       0.000037  -0.000078   0.000005   0.000186  -0.000091  -0.000024
     48      -0.000051  -0.000039   0.000007  -0.000009  -0.000038   0.000038
     49      -0.000011   0.000146  -0.000033  -0.000175   0.000070   0.000026
     50      -0.000044  -0.000047  -0.000005  -0.000043   0.000037  -0.000024
     51      -0.000010  -0.000048   0.000025   0.000030  -0.000006  -0.000025
     52      -0.000029   0.000046  -0.000003   0.000001  -0.000056   0.000083
     53      -0.000005   0.000079   0.000003  -0.000016   0.000030   0.000015
     54       0.000005   0.000119   0.000063  -0.000026  -0.000007  -0.000068
     55      -0.000104  -0.000047  -0.000041   0.000054  -0.000025  -0.000108
     56       0.000202   0.000270   0.000081   0.000016  -0.000000   0.000095
     57       0.000328  -0.000780  -0.000586  -0.000429   0.000571  -0.001291
     58      -0.000457   0.000835   0.000481   0.000459  -0.000554   0.001271
     59      -0.000014   0.000032   0.000093   0.000052   0.000019   0.000058
     60      -0.004593   0.009386   0.006302   0.005154  -0.006458   0.014590
     61       0.004289  -0.009213  -0.006320  -0.004954   0.006326  -0.014459
     62       0.000146  -0.000139   0.000099   0.000011   0.000100   0.000140
     63       0.000276   0.000392   0.001269   0.000671  -0.000249   0.001355
     64       0.000124   0.000319   0.000499   0.000254  -0.000173   0.000770
     65      -0.000172  -0.000318  -0.001228  -0.000712   0.000241  -0.001117
     66       0.000442  -0.000543  -0.000189  -0.000332   0.000054  -0.000468
     67       0.000837  -0.000811  -0.000171  -0.000653  -0.000003  -0.000568
     68       0.000277  -0.000126   0.000034  -0.000153  -0.000014   0.000034
     69      -0.000817  -0.001248  -0.000481   0.000128   0.000187  -0.000455
     70      -0.000036  -0.000010   0.000003  -0.000030   0.000015  -0.000107
     71      -0.001985  -0.003196  -0.001219   0.000616   0.000162  -0.000505
     72       0.000092   0.000070   0.000212  -0.000177   0.000017   0.000121
     73       0.000778   0.000443   0.000729  -0.001061   0.000295   0.000507
     74       0.000355   0.000194   0.000315  -0.000336   0.000093   0.000353
     75       0.000489   0.000067  -0.000185   0.000608  -0.000425   0.001480
     76       0.000439   0.000083  -0.000155   0.000135   0.000009   0.000617
     77      -0.000454   0.000038   0.000233  -0.000599   0.000477  -0.001431
     78       0.034502  -0.211329   0.014843  -0.077003   0.120304  -0.207993
     79      -0.078903   0.483414  -0.034100   0.172170  -0.273955   0.474242
     80      -0.056737   0.345515  -0.024394   0.124476  -0.196180   0.339521
     81      -0.015818   0.266648  -0.078761  -0.327107   0.153431   0.103431
     82       0.000760  -0.017589   0.005295   0.021228  -0.010476  -0.007647
     83       0.005312  -0.087675   0.026137   0.107086  -0.050389  -0.034630
     84       0.042942  -0.309364   0.057950   0.445765  -0.119714   0.154965
     85       0.047647  -0.339873   0.063605   0.486726  -0.129391   0.167440
     86       0.017901  -0.126271   0.023550   0.180833  -0.048024   0.063089
     87      -0.008712   0.137136   0.049966   0.131102   0.008004  -0.176042
     88       0.022087  -0.406203  -0.147486  -0.386951  -0.023073   0.516081
     89       0.013319  -0.287543  -0.104765  -0.273596  -0.016913   0.363435
     90       0.921315   0.110670   0.164277  -0.035373   0.018841   0.070729
     91      -0.097291  -0.010677  -0.017729   0.004326  -0.003409  -0.009482
     92      -0.286746  -0.034204  -0.051555   0.010552  -0.006340  -0.020579
     93       0.009399   0.001804  -0.072289   0.019695   0.079899   0.021115
     94      -0.021386  -0.004624   0.165087  -0.046052  -0.181232  -0.048279
     95      -0.015693  -0.003392   0.121146  -0.033757  -0.132809  -0.035247
     96       0.100162   0.037215  -0.567799   0.173005   0.183422  -0.019808
     97       0.105568   0.039796  -0.596917   0.183603   0.197594  -0.019709
     98       0.041413   0.015666  -0.228352   0.071009   0.078403  -0.006061
     99      -0.103166   0.067025   0.343568   0.184709   0.769788   0.299022
    100       0.014632  -0.008197  -0.040528  -0.023533  -0.095967  -0.037246
    101       0.035819  -0.022257  -0.113220  -0.061984  -0.256620  -0.099701
    102      -0.003485   0.001306   0.004442  -0.001321  -0.011385   0.001231
    103       0.000681  -0.000343  -0.001350   0.000636   0.002856   0.000267
    104       0.000985  -0.000529  -0.002272   0.000696   0.003974  -0.000360
                102        103        104    
      0      -0.068636   0.022173  -0.000039
      1       0.005154  -0.001630   0.000259
      2       0.023165  -0.007416   0.000152
      3      -0.022488   0.009605  -0.000137
      4      -0.027129   0.010801   0.000177
      5      -0.010990   0.004261   0.000094
      6      -0.002180  -0.000396   0.000377
      7       0.008490  -0.001842   0.000586
      8       0.005600  -0.000922   0.000313
      9       0.001362  -0.000328   0.000715
     10       0.002070  -0.000704  -0.000884
     11       0.000813  -0.000286  -0.000734
     12       0.000231  -0.000311   0.000035
     13       0.000179  -0.000252   0.000764
     14      -0.000066  -0.000034   0.000219
     15      -0.000106  -0.000070  -0.000718
     16      -0.000279   0.000068   0.000382
     17      -0.000144   0.000066   0.000461
     18       0.000528   0.000044  -0.000027
     19      -0.000130   0.000310  -0.000647
     20      -0.000165   0.000160  -0.000507
     21      -0.002639   0.002045  -0.000615
     22       0.006631  -0.006049  -0.000380
     23       0.005026  -0.004392   0.000063
     24       0.002344  -0.000559   0.000023
     25      -0.000139   0.000160   0.000678
     26      -0.000721   0.000211   0.000514
     27       0.000050   0.000661  -0.000507
     28       0.000467   0.001213  -0.000086
     29       0.000290   0.000647   0.000152
     30      -0.000067  -0.000475   0.001381
     31      -0.000217   0.000281  -0.000628
     32      -0.000169   0.000293  -0.000855
     33       0.000023   0.000738  -0.068270
     34       0.000336   0.001157   0.009643
     35       0.000146   0.000372   0.023384
     36       0.011032   0.028645   0.000913
     37      -0.022309  -0.058594   0.000476
     38      -0.016525  -0.043301   0.000115
     39      -0.004061  -0.019891   0.000300
     40      -0.002914  -0.018009  -0.000043
     41      -0.000804  -0.006191  -0.000101
     42       0.003973  -0.015379  -0.000583
     43       0.000107   0.003650  -0.000124
     44      -0.000995   0.006207   0.000097
     45      -0.000064   0.000128  -0.001204
     46      -0.000034  -0.000112   0.000244
     47      -0.000331   0.000089  -0.000416
     48       0.000063  -0.000045   0.000194
     49       0.000341  -0.000103  -0.000032
     50       0.000123  -0.000058   0.000264
     51      -0.000006  -0.000035   0.000174
     52      -0.000032   0.000017  -0.000133
     53       0.000075  -0.000029  -0.000056
     54      -0.000109  -0.000017  -0.000092
     55      -0.000092   0.000079   0.000088
     56       0.000172   0.000026  -0.000025
     57      -0.000103   0.000117  -0.000580
     58       0.000196  -0.000083   0.000032
     59       0.000120  -0.000006   0.000504
     60       0.001393  -0.001379   0.000499
     61      -0.001286   0.001584  -0.001445
     62      -0.000032  -0.000116   0.000655
     63       0.000273  -0.000024   0.001425
     64       0.000158  -0.000014  -0.000079
     65      -0.000063  -0.000198  -0.000940
     66      -0.000422  -0.000108  -0.000067
     67      -0.000702  -0.000241   0.000367
     68      -0.000067  -0.000171  -0.000074
     69      -0.000197  -0.000139   0.000517
     70      -0.000055   0.000005   0.000015
     71      -0.000599  -0.000459   0.000638
     72      -0.000078  -0.000277   0.000036
     73       0.000065  -0.001092  -0.000554
     74       0.000130  -0.000550  -0.000310
     75       0.001262   0.000299   0.000068
     76       0.001063   0.000165  -0.000142
     77      -0.000957  -0.000363   0.000283
     78       0.044708  -0.008497   0.002039
     79      -0.102736   0.020196  -0.004406
     80      -0.070983   0.013380  -0.002936
     81       0.780803  -0.252332  -0.000753
     82      -0.054647   0.017877  -0.000233
     83      -0.258151   0.083271  -0.000180
     84       0.264589  -0.107349  -0.001325
     85       0.290914  -0.117824  -0.001571
     86       0.109788  -0.044323  -0.000350
     87       0.026965  -0.023560  -0.000165
     88      -0.078876   0.069657  -0.000534
     89      -0.056138   0.048311   0.000147
     90      -0.027578   0.007984   0.002649
     91       0.003167  -0.001339  -0.000176
     92       0.008694  -0.002105  -0.000336
     93      -0.114221  -0.298078   0.001246
     94       0.254589   0.665094  -0.004731
     95       0.186817   0.487173  -0.003802
     96       0.032675   0.191967   0.007855
     97       0.033115   0.200358   0.006520
     98       0.012184   0.075695   0.001091
     99      -0.048485   0.173164   0.007367
    100       0.005487  -0.022713  -0.000650
    101       0.015590  -0.058470  -0.001872
    102       0.001866  -0.000134   0.933657
    103      -0.001925  -0.004072  -0.136180
    104      -0.001603  -0.002397  -0.322758


-----------
IR SPECTRUM
-----------

 Mode   freq       eps      Int      T**2         TX        TY        TZ
       cm**-1   L/(mol*cm) km/mol    a.u.
----------------------------------------------------------------------------
  7:     38.28   0.000997    5.04  0.008126  (-0.035332 -0.067768  0.047800)
  8:     40.12   0.000092    0.46  0.000713  (-0.013415 -0.008068 -0.021641)
  9:     64.58   0.000441    2.23  0.002129  (-0.035703 -0.019204 -0.022027)
 10:     80.15   0.000334    1.69  0.001301  (-0.019741  0.015041 -0.026169)
 11:    101.35   0.000065    0.33  0.000201  (-0.009041 -0.007462 -0.007980)
 12:    106.53   0.001034    5.22  0.003028  ( 0.007426 -0.047088  0.027485)
 13:    141.78   0.000611    3.09  0.001345  ( 0.026114  0.021709 -0.013848)
 14:    153.60   0.000323    1.63  0.000655  (-0.020802  0.005991 -0.013669)
 15:    200.64   0.000805    4.07  0.001252  ( 0.009636  0.016250 -0.029911)
 16:    218.49   0.001221    6.17  0.001743  (-0.031114  0.026655 -0.008042)
 17:    241.55   0.002803   14.17  0.003622  ( 0.035972  0.047526 -0.008295)
 18:    256.08   0.000205    1.04  0.000250  ( 0.006873  0.001782 -0.014141)
 19:    262.49   0.002833   14.32  0.003368  ( 0.054632 -0.007077  0.018261)
 20:    332.95   0.000351    1.77  0.000329  (-0.018080  0.000526  0.001315)
 21:    334.75   0.002407   12.17  0.002244  ( 0.043471 -0.016368 -0.009314)
 22:    387.36   0.003120   15.76  0.002513  ( 0.034544 -0.024796 -0.026553)
 23:    410.06   0.001206    6.10  0.000918  ( 0.009033  0.021919  0.018871)
 24:    454.16   0.002091   10.57  0.001437  ( 0.001296  0.016732 -0.033984)
 25:    463.87   0.003881   19.61  0.002611  (-0.031393  0.024121 -0.032301)
 26:    473.29   0.008831   44.63  0.005823  ( 0.027418 -0.048022  0.052583)
 27:    488.20   0.006458   32.64  0.004128  (-0.013827 -0.016141  0.060632)
 28:    496.30   0.003321   16.78  0.002088  (-0.027424  0.028505 -0.022876)
 29:    504.87   0.000987    4.99  0.000610  (-0.014037 -0.020166  0.002479)
 30:    543.45   0.001415    7.15  0.000813  ( 0.028101  0.003311 -0.003452)
 31:    555.37   0.009464   47.83  0.005318  ( 0.014962 -0.035739  0.061779)
 32:    595.57   0.000639    3.23  0.000335  (-0.012509 -0.012782 -0.003862)
 33:    604.55   0.001739    8.79  0.000898  (-0.020222  0.016518 -0.014694)
 34:    632.49   0.006513   32.91  0.003213  (-0.017460  0.016503  0.051345)
 35:    661.13   0.013633   68.90  0.006435  ( 0.024116 -0.048404  0.059249)
 36:    692.26   0.004846   24.49  0.002184  ( 0.035600 -0.024014 -0.018452)
 37:    693.95   0.001994   10.08  0.000897  (-0.023220  0.014908  0.011639)
 38:    715.88   0.001046    5.29  0.000456  ( 0.015622  0.009446  0.011082)
 39:    745.45   0.006065   30.65  0.002539  ( 0.022464  0.042457 -0.015224)
 40:    754.96   0.006407   32.38  0.002649  ( 0.018272  0.007527 -0.047519)
 41:    785.75   0.005611   28.36  0.002229  (-0.035949  0.026722 -0.014906)
 42:    800.22   0.025551  129.12  0.009964  ( 0.080677 -0.017561 -0.056097)
 43:    822.07   0.006722   33.97  0.002552  (-0.043094  0.018088  0.019170)
 44:    842.13   0.007414   37.47  0.002747  (-0.041440  0.027185 -0.017064)
 45:    851.00   0.013112   66.26  0.004808  ( 0.015905 -0.037454  0.056147)
 46:    869.40   0.000474    2.40  0.000170  ( 0.012836  0.002244  0.000700)
 47:    925.64   0.000786    3.97  0.000265  ( 0.006670 -0.010467  0.010532)
 48:    941.77   0.001485    7.50  0.000492  ( 0.010752 -0.011234  0.015816)
 49:    957.39   0.045307  228.97  0.014768  (-0.108602  0.054390  0.003914)
 50:    968.65   0.000622    3.14  0.000200  ( 0.006445  0.001032 -0.012565)
 51:    976.91   0.000029    0.15  0.000009  ( 0.002320  0.001582 -0.001189)
 52:   1010.38   0.004710   23.80  0.001455  ( 0.022116 -0.027780 -0.013926)
 53:   1034.61   0.041698  210.73  0.012577  ( 0.085373 -0.063897 -0.034727)
 54:   1070.20   0.005880   29.72  0.001715  ( 0.036172 -0.016925  0.010947)
 55:   1074.77   0.004506   22.77  0.001308  ( 0.033771 -0.009625 -0.008669)
 56:   1092.66   0.055249  279.20  0.015779  (-0.068016  0.087148  0.059650)
 57:   1112.78   0.124729  630.33  0.034978  ( 0.137001 -0.094535 -0.085278)
 58:   1125.35   0.002377   12.01  0.000659  (-0.022391  0.010664  0.006640)
 59:   1129.39   0.003620   18.29  0.001000  ( 0.027071  0.015723  0.004489)
 60:   1154.98   0.003248   16.41  0.000878  (-0.003004 -0.024122 -0.016932)
 61:   1173.75   0.001109    5.61  0.000295  (-0.009086  0.013903 -0.004369)
 62:   1189.72   0.000322    1.63  0.000085  ( 0.006875  0.000697 -0.006069)
 63:   1205.25   0.012071   61.00  0.003125  (-0.049380  0.024689  0.008801)
 64:   1224.03   0.009043   45.70  0.002306  ( 0.045371  0.015154 -0.004164)
 65:   1234.19   0.020394  103.06  0.005157  (-0.040152  0.053762  0.025574)
 66:   1255.25   0.011870   59.99  0.002951  ( 0.047964 -0.025004 -0.005023)
 67:   1271.02   0.001044    5.28  0.000256  (-0.004274  0.009745  0.011967)
 68:   1287.48   0.015585   78.76  0.003778  (-0.022004  0.050455  0.027344)
 69:   1352.96   0.015132   76.47  0.003490  ( 0.058456 -0.002753 -0.008096)
 70:   1367.29   0.036798  185.96  0.008399  ( 0.042761  0.073399  0.034391)
 71:   1384.66   0.003696   18.68  0.000833  (-0.012343  0.023285  0.011762)
 72:   1399.54   0.041544  209.95  0.009263  (-0.095552  0.000335  0.011540)
 73:   1413.95   0.025684  129.80  0.005669  (-0.068725  0.024333  0.018796)
 74:   1440.80   0.003309   16.72  0.000717  ( 0.003252 -0.002891 -0.026417)
 75:   1446.87   0.003784   19.12  0.000816  ( 0.025993 -0.007926 -0.008815)
 76:   1458.82   0.012843   64.90  0.002747  ( 0.045770 -0.025500  0.001476)
 77:   1463.09   0.012577   63.56  0.002683  ( 0.002818 -0.020580 -0.047446)
 78:   1474.54   0.000298    1.51  0.000063  ( 0.004520 -0.006298  0.001753)
 79:   1484.30   0.007202   36.39  0.001514  ( 0.023928  0.027187 -0.014228)
 80:   1488.93   0.003150   15.92  0.000660  (-0.023132  0.000434 -0.011179)
 81:   1489.80   0.001628    8.23  0.000341  (-0.008682 -0.015640  0.004588)
 82:   1511.60   0.016855   85.18  0.003480  ( 0.037916 -0.034580 -0.029090)
 83:   1517.51   0.018264   92.30  0.003756  ( 0.056533  0.016389  0.017064)
 84:   1525.96   0.011222   56.71  0.002295  (-0.004895 -0.044767 -0.016339)
 85:   1571.85   0.015331   77.48  0.003044  ( 0.033080  0.039802  0.019109)
 86:   1579.09   0.010223   51.66  0.002020  (-0.034242 -0.026631 -0.011773)
 87:   1612.69   0.003946   19.94  0.000764  (-0.002615  0.025932  0.009183)
 88:   1626.35   0.021538  108.84  0.004133  ( 0.001246 -0.054010 -0.034843)
 89:   1761.61   0.210390  1063.23  0.037270  (-0.006534 -0.046385 -0.187285)
 90:   3039.42   0.007349   37.14  0.000755  (-0.023332  0.014020  0.003686)
 91:   3043.35   0.013397   67.70  0.001374  ( 0.002071 -0.019058 -0.031722)
 92:   3097.73   0.007561   38.21  0.000762  (-0.015706 -0.021259  0.007939)
 93:   3104.31   0.002242   11.33  0.000225  (-0.009853 -0.008510  0.007477)
 94:   3175.20   0.000547    2.77  0.000054  ( 0.004016 -0.001346  0.005988)
 95:   3182.05   0.001095    5.53  0.000107  (-0.007087  0.007522 -0.000748)
 96:   3206.15   0.000361    1.83  0.000035  (-0.003508  0.003589  0.003161)
 97:   3214.13   0.000177    0.90  0.000017  (-0.002279  0.002578  0.002321)
 98:   3217.16   0.000243    1.23  0.000024  (-0.003318  0.002546  0.002466)
 99:   3220.87   0.001575    7.96  0.000153  (-0.007399 -0.009034 -0.004035)
100:   3227.39   0.000230    1.16  0.000022  ( 0.003426  0.002991  0.001238)
101:   3232.85   0.001223    6.18  0.000118  ( 0.005009 -0.007464 -0.006100)
102:   3237.64   0.000987    4.99  0.000095  (-0.005141  0.005852  0.005871)
103:   3242.68   0.001995   10.08  0.000192  ( 0.004160  0.011787  0.005982)
104:   3640.86   0.089595  452.77  0.007679  ( 0.083078 -0.010078 -0.025995)

* The epsilon (eps) is given for a Dirac delta lineshape.
** The dipole moment derivative (T) already includes vibrational overlap.

The first frequency considered to be a vibration is 7
The total number of vibrations considered is 98


--------------------------
THERMOCHEMISTRY AT 298.15K
--------------------------

Temperature         ...   298.15 K
Pressure            ...     1.00 atm
Total Mass          ...   267.31 AMU
Quasi RRHO          ...     True
Cut-Off Frequency   ...     1.00 cm^-1

Throughout the following assumptions are being made:
  (1) The electronic state is orbitally nondegenerate
  (2) There are no thermally accessible electronically excited states
  (3) Hindered rotations indicated by low frequency modes are not
      treated as such but are treated as vibrations and this may
      cause some error
  (4) All equations used are the standard statistical mechanics
      equations for an ideal gas
  (5) All vibrations are strictly harmonic

freq.      38.28  E(vib)   ...       0.54 
freq.      40.12  E(vib)   ...       0.54 
freq.      64.58  E(vib)   ...       0.50 
freq.      80.15  E(vib)   ...       0.49 
freq.     101.35  E(vib)   ...       0.46 
freq.     106.53  E(vib)   ...       0.45 
freq.     141.78  E(vib)   ...       0.41 
freq.     153.60  E(vib)   ...       0.40 
freq.     200.64  E(vib)   ...       0.35 
freq.     218.49  E(vib)   ...       0.33 
freq.     241.55  E(vib)   ...       0.31 
freq.     256.08  E(vib)   ...       0.30 
freq.     262.49  E(vib)   ...       0.29 
freq.     332.95  E(vib)   ...       0.24 
freq.     334.75  E(vib)   ...       0.24 
freq.     387.36  E(vib)   ...       0.20 
freq.     410.06  E(vib)   ...       0.19 
freq.     454.16  E(vib)   ...       0.16 
freq.     463.87  E(vib)   ...       0.16 
freq.     473.29  E(vib)   ...       0.15 
freq.     488.20  E(vib)   ...       0.15 
freq.     496.30  E(vib)   ...       0.14 
freq.     504.87  E(vib)   ...       0.14 
freq.     543.45  E(vib)   ...       0.12 
freq.     555.37  E(vib)   ...       0.12 
freq.     595.57  E(vib)   ...       0.10 
freq.     604.55  E(vib)   ...       0.10 
freq.     632.49  E(vib)   ...       0.09 
freq.     661.13  E(vib)   ...       0.08 
freq.     692.26  E(vib)   ...       0.07 
freq.     693.95  E(vib)   ...       0.07 
freq.     715.88  E(vib)   ...       0.07 
freq.     745.45  E(vib)   ...       0.06 
freq.     754.96  E(vib)   ...       0.06 
freq.     785.75  E(vib)   ...       0.05 
freq.     800.22  E(vib)   ...       0.05 
freq.     822.07  E(vib)   ...       0.05 
freq.     842.13  E(vib)   ...       0.04 
freq.     851.00  E(vib)   ...       0.04 
freq.     869.40  E(vib)   ...       0.04 
freq.     925.64  E(vib)   ...       0.03 
freq.     941.77  E(vib)   ...       0.03 
freq.     957.39  E(vib)   ...       0.03 
freq.     968.65  E(vib)   ...       0.03 
freq.     976.91  E(vib)   ...       0.03 
freq.    1010.38  E(vib)   ...       0.02 
freq.    1034.61  E(vib)   ...       0.02 
freq.    1070.20  E(vib)   ...       0.02 
freq.    1074.77  E(vib)   ...       0.02 
freq.    1092.66  E(vib)   ...       0.02 
freq.    1112.78  E(vib)   ...       0.01 
freq.    1125.35  E(vib)   ...       0.01 
freq.    1129.39  E(vib)   ...       0.01 
freq.    1154.98  E(vib)   ...       0.01 
freq.    1173.75  E(vib)   ...       0.01 
freq.    1189.72  E(vib)   ...       0.01 
freq.    1205.25  E(vib)   ...       0.01 
freq.    1224.03  E(vib)   ...       0.01 
freq.    1234.19  E(vib)   ...       0.01 
freq.    1255.25  E(vib)   ...       0.01 
freq.    1271.02  E(vib)   ...       0.01 
freq.    1287.48  E(vib)   ...       0.01 
freq.    1352.96  E(vib)   ...       0.01 
freq.    1367.29  E(vib)   ...       0.01 
freq.    1384.66  E(vib)   ...       0.00 
freq.    1399.54  E(vib)   ...       0.00 
freq.    1413.95  E(vib)   ...       0.00 
freq.    1440.80  E(vib)   ...       0.00 
freq.    1446.87  E(vib)   ...       0.00 
freq.    1458.82  E(vib)   ...       0.00 
freq.    1463.09  E(vib)   ...       0.00 
freq.    1474.54  E(vib)   ...       0.00 
freq.    1484.30  E(vib)   ...       0.00 
freq.    1488.93  E(vib)   ...       0.00 
freq.    1489.80  E(vib)   ...       0.00 
freq.    1511.60  E(vib)   ...       0.00 
freq.    1517.51  E(vib)   ...       0.00 
freq.    1525.96  E(vib)   ...       0.00 
freq.    1571.85  E(vib)   ...       0.00 
freq.    1579.09  E(vib)   ...       0.00 
freq.    1612.69  E(vib)   ...       0.00 
freq.    1626.35  E(vib)   ...       0.00 
freq.    1761.61  E(vib)   ...       0.00 
freq.    3039.42  E(vib)   ...       0.00 
freq.    3043.35  E(vib)   ...       0.00 
freq.    3097.73  E(vib)   ...       0.00 
freq.    3104.31  E(vib)   ...       0.00 
freq.    3175.20  E(vib)   ...       0.00 
freq.    3182.05  E(vib)   ...       0.00 
freq.    3206.15  E(vib)   ...       0.00 
freq.    3214.13  E(vib)   ...       0.00 
freq.    3217.16  E(vib)   ...       0.00 
freq.    3220.87  E(vib)   ...       0.00 
freq.    3227.39  E(vib)   ...       0.00 
freq.    3232.85  E(vib)   ...       0.00 
freq.    3237.64  E(vib)   ...       0.00 
freq.    3242.68  E(vib)   ...       0.00 
freq.    3640.86  E(vib)   ...       0.00 

------------
INNER ENERGY
------------

The inner energy is: U= E(el) + E(ZPE) + E(vib) + E(rot) + E(trans)
    E(el)   - is the total energy from the electronic structure calculation
              = E(kin-el) + E(nuc-el) + E(el-el) + E(nuc-nuc)
    E(ZPE)  - the the zero temperature vibrational energy from the frequency calculation
    E(vib)  - the the finite temperature correction to E(ZPE) due to population
              of excited vibrational states
    E(rot)  - is the rotational thermal energy
    E(trans)- is the translational thermal energy

Summary of contributions to the inner energy U:
Electronic energy                ...   -878.34080952 Eh
Zero point energy                ...      0.27859089 Eh     174.82 kcal/mol
Thermal vibrational correction   ...      0.01401357 Eh       8.79 kcal/mol
Thermal rotational correction    ...      0.00141627 Eh       0.89 kcal/mol
Thermal translational correction ...      0.00141627 Eh       0.89 kcal/mol
-----------------------------------------------------------------------
Total thermal energy                   -878.04537251 Eh


Summary of corrections to the electronic energy:
(perhaps to be used in another calculation)
Total thermal correction                  0.01684612 Eh      10.57 kcal/mol
Non-thermal (ZPE) correction              0.27859089 Eh     174.82 kcal/mol
-----------------------------------------------------------------------
Total correction                          0.29543701 Eh     185.39 kcal/mol


--------
ENTHALPY
--------

The enthalpy is H = U + kB*T
                kB is Boltzmann's constant
Total thermal energy              ...   -878.04537251 Eh 
Thermal Enthalpy correction       ...      0.00094421 Eh       0.59 kcal/mol
-----------------------------------------------------------------------
Total Enthalpy                    ...   -878.04442830 Eh


Note: Only C1 symmetry has been detected, increase convergence thresholds 
      if your molecule has a higher symmetry. Symmetry factor of 1.0 is   
      used for the rotational entropy correction. 
 

Note: Rotational entropy computed according to Herzberg 
Infrared and Raman Spectra, Chapter V,1, Van Nostrand Reinhold, 1945 
Point Group:  C1, Symmetry Number:   1  
Rotational constants in cm-1:     0.017067     0.009333     0.006368 

Vibrational entropy computed according to the QRRHO of S. Grimme
Chem.Eur.J. 2012 18 9955 using a reference frequency of 100.0 cm-1


-------
ENTROPY
-------

The entropy contributions are T*S = T*(S(el)+S(vib)+S(rot)+S(trans))
     S(el)   - electronic entropy
     S(vib)  - vibrational entropy
     S(rot)  - rotational entropy
     S(trans)- translational entropy
The entropies will be listed as multiplied by the temperature to get
units of energy

Electronic entropy                ...      0.00000000 Eh      0.00 kcal/mol
Vibrational entropy               ...      0.02419544 Eh     15.18 kcal/mol
Rotational entropy                ...      0.01602627 Eh     10.06 kcal/mol
Translational entropy             ...      0.02026376 Eh     12.72 kcal/mol
-----------------------------------------------------------------------
Final entropy term                ...      0.06048547 Eh     37.96 kcal/mol

In case the symmetry of your molecule has not been determined correctly
or in case you have a reason to use a different symmetry number we print 
out the resulting rotational entropy values for sn=1,12:

 non-linear molecules -----------------------------------
|  sn= 1 | S(rot)=       0.01602627 Eh     10.06 kcal/mol|
|  sn= 2 | S(rot)=       0.01537181 Eh      9.65 kcal/mol|
|  sn= 3 | S(rot)=       0.01498898 Eh      9.41 kcal/mol|
|  sn= 4 | S(rot)=       0.01471736 Eh      9.24 kcal/mol|
|  sn= 5 | S(rot)=       0.01450667 Eh      9.10 kcal/mol|
|  sn= 6 | S(rot)=       0.01433453 Eh      9.00 kcal/mol|
|  sn= 7 | S(rot)=       0.01418898 Eh      8.90 kcal/mol|
|  sn= 8 | S(rot)=       0.01406290 Eh      8.82 kcal/mol|
|  sn= 9 | S(rot)=       0.01395169 Eh      8.75 kcal/mol|
|  sn=10 | S(rot)=       0.01385221 Eh      8.69 kcal/mol|
|  sn=11 | S(rot)=       0.01376222 Eh      8.64 kcal/mol|
|  sn=12 | S(rot)=       0.01368007 Eh      8.58 kcal/mol|
 linear molecules ---------------------------------------
|  Dinfh | S(rot)=       0.01010005 Eh      6.34 kcal/mol|
|  Cinfv | S(rot)=       0.01075451 Eh      6.75 kcal/mol|
 --------------------------------------------------------


-------------------
GIBBS FREE ENERGY
-------------------

The Gibbs free energy is G = H - T*S

Total enthalpy                    ...   -878.04442830 Eh 
Total entropy correction          ...     -0.06048547 Eh    -37.96 kcal/mol
-----------------------------------------------------------------------
Final Gibbs free energy         ...   -878.10491378 Eh

For completeness - the Gibbs free energy minus the electronic energy
G-E(el)                           ...      0.23589575 Eh    148.03 kcal/mol



--------------------------------
SUGGESTED CITATIONS FOR THIS RUN
--------------------------------

Below you find a list of papers that are relevant to this ORCA run
We neither can nor want to force you to cite these papers, but we appreciate if you do
You receive ORCA, which is the product of decades of hard work by many enthusiastic individuals, for free
The only thing we kindly ask in return is that you cite our papers,
We deeply appreciate it, if you show your appreciation for ORCA by not just citing the generic ORCA reference.

Please note that relegating all ORCA citations to the supporting information does *not* help us.
SI sections are not indexed - citations you put there will not count into any citation statistics
But we need these citations in order to attract the funding resources that allow us to do what we are doing

Therefore, if you are a happy ORCA user, please consider citing a few of the papers listed below in the main body of your paper

In addition to the list printed below, the program has created the file HBQ-H.bibtex that contains the list in bibtex format
You can import this file easily into all common literature databanks and citation aid programs


List of essential papers. We consider these as the minimum necessary citations

  1. Neese,F.
     Software update: the ORCA program system, version 5.0
     WIRES Comput. Molec. Sci., 2022 12(1)e1606
     doi.org/10.1002/wcms.1606

List of papers to cite with high priority. The work reported in these papers was absolutely
necessary for this run to complete.
Our perspective: the developers of density functionals and basis sets usually get cited in chemistry papers
Good! But without the algorithms to do something with them, the functionals or basis sets would not do anything.
Hence, in our opinion, the algorithm design and method developments papers are equally worthy of getting cited

  1. Neese,F.; Olbrich,G.
     Efficient use of the resolution of the identity approximation in time-dependent density functional calculations with hybrid density functionals
     Chem. Phys. Lett., 2002 362 170-178
     doi.org/10.1016/s0009-2614(02)01053-9
  2. Neese,F.
     An improvement of the resolution of the identity approximation for the formation of the Coulomb matrix
     J. Comp. Chem., 2003 24(14)1740-1747
     doi.org/10.1002/jcc.10318
  3. Neese,F.; Wennmohs,F.; Hansen,A.; Becker,U.
     Efficient, approximate and parallel Hartree-Fock and hybrid DFT calculations. A 'chain-of-spheres' algorithm for the Hartree-Fock exchange
     Chem. Phys., 2009 356(1-3)98-109
     doi.org/10.1016/j.chemphys.2008.10.036
  4. Petrenko,T.; Kossmann,S.; Neese,F.
     Efficient time-dependent density functional theory approximations for hybrid density functionals: Analytical gradients and parallelization
     J. Chem. Phys., 2011 134 054116
     doi.org/10.1063/1.3533441
  5. Bykov,D.; Petrenko,T.; Izsak,R.; Kossmann,S.; Becker,U.; Valeev,E.; Neese,F.
     Efficient implementation of the analytic second derivatives of Hartree-Fock and hybrid DFT energies: a detailed analysis of different approximations
     Molec. Phys., 2015 113 1961-1977
     doi.org/10.1080/00268976.2015.1025114
  6. Garcia-Rates,M.; Neese,F.
     Effect of the Solute Cavity on the Solvation Energy and its Derivatives within the Framework of the Gaussian Charge Scheme
     J. Comput. Chem., 2020 41 922-939
     doi.org/10.1002/jcc.26139
  7. Helmich-Paris,B.; de Souza,B.; Neese,F.; Izsák,R.
     An improved chain of spheres for exchange algorithm
     J. Chem. Phys., 2021 155 104109
     doi.org/doi: 10.1063/5.0058766.
  8. Neese,F.
     The SHARK Integral Generation and Digestion System
     J. Comp. Chem., 2022  1-16
     doi.org/10.1002/jcc.26942
  9. Grimme,S.; Antony,J.; Ehrlich,S.; Krieg,H.
     A consistent and accurate ab initio parametrization of density functional dispersion correction (DFT-D) for the 94 elements H-Pu
     J. Chem. Phys., 2010 132 154104
     doi.org/10.1063/1.3382344
 10. Grimme,S.; Ehrlich,S.; Goerigk,L.
     Effect of the damping function in dispersion corrected density functional theory
     J. Comput. Chem., 2011 32(7)1456-1465
     doi.org/10.1002/jcc.21759

List of suggested additional citations. These are papers that are important in the 'surrounding' of 
of this run, or papers that preceded the highly important papers. If you like your results we are grateful for a citation.

  1. Izsak,R.; Neese,F.
     An overlap fitted chain of spheres exchange method
     J. Chem. Phys., 2011 135 144105
     doi.org/10.1063/1.3646921
  2. Izsak,R.; Hansen,A.; Neese,F.
     The resolution of identity and chain of spheres approximations for the LPNO-CCSD singles Fock term
     Molec. Phys., 2012 110 2413-2417
     doi.org/10.1080/00268976.2012.687466
  3. Neese,F.
     The ORCA program system
     WIRES Comput. Molec. Sci., 2012 2(1)73-78
     doi.org/10.1002/wcms.81
  4. Izsak,R.; Neese,F.; Klopper,W.
     Robust fitting techniques in the chain of spheres approximation to the Fock exchange: The role of the complementary space
     J. Chem. Phys., 2013 139 
     doi.org/10.1063/1.4819264
  5. Neese,F.
     Software update: the ORCA program system, version 4.0
     WIRES Comput. Molec. Sci., 2018 8(1)1-6
     doi.org/10.1002/wcms.1327
  6. Neese,F.; Wennmohs,F.; Becker,U.; Riplinger,C.
     The ORCA quantum chemistry program package
     J. Chem. Phys., 2020 152 Art. No. L224108
     doi.org/10.1063/5.0004608

List of optional additional citations

  1. Neese,F.
     Approximate second-order SCF convergence for spin unrestricted wavefunctions
     Chem. Phys. Lett., 2000 325(1-3)93-98
     doi.org/10.1016/s0009-2614(00)00662-x

Timings for individual modules:

Sum of individual times          ...   175527.872 sec (=2925.465 min)
Startup calculation              ...       76.001 sec (=   1.267 min)   0.0 %
SCF iterations                   ...     2378.619 sec (=  39.644 min)   1.4 %
Property integrals               ...        9.551 sec (=   0.159 min)   0.0 %
Property calculations            ...        0.176 sec (=   0.003 min)   0.0 %
CIS module                       ...     5879.965 sec (=  97.999 min)   3.3 %
Geometry relaxation              ...        0.228 sec (=   0.004 min)   0.0 %
Numerical frequency calculation  ...   167183.332 sec (=2786.389 min)  95.2 %
                             ****ORCA TERMINATED NORMALLY****
TOTAL RUN TIME: 2 days 0 hours 32 minutes 53 seconds 227 msec
