! B3LYP/G OPT FREQ 6-311G* CPCM(Water)

* xyz 0 1 
C  -3.31137458071911439106 -0.50096689228381197090 -0.43536659507756925169
C  -2.91138402134533524901 -1.43020623516490896776 -1.39386406679854291113
C  -1.58017203185885524164 -1.59099456948998518868 -1.67646902496303606966
C  -2.37629999641601763471 0.26258213542743957802 0.22869825861759340846
C  -0.99671838779460575353 0.12299598907752806731 -0.03769209841385934290
O  -2.78319280126748180848 1.15119696864756737575 1.20886171537726161418
C  -0.60735479070218445496 -0.82689504260035562311 -1.01269659600928907395
C  0.77265831187194411456 -0.99531800168630724102 -1.32743651086092917524
C  1.72848903396178155134 -0.25663890796477684120 -0.72095597716813342171
C  0.02184054713991767649 0.90211219976728795888 0.62064520566101033516
C  1.38025426035368248279 0.70931278682404541591 0.26267194721341369235
N  -0.33039133429614997439 1.79517834912755080978 1.55746054455543081474
C  0.59768988695273694844 2.51106336903188598342 2.14389799449429840905
C  1.96138487751517409663 2.40504513919686679913 1.85793110063144562005
C  2.35038743983233366919 1.49146354915514711692 0.90983684120733210321
C  -3.67804750574959182785 2.11970897172060990243 0.89231454562746348458
O  -4.14651243624705045931 2.26307522594072718647 -0.22990156567383401853
N  -3.96799992610110319191 2.89424015630643172159 1.94037192132762870145
C  -3.35596808628195208968 2.72802088998273317699 3.24111141977210914789
C  -4.96386939822996087202 3.93602311782976421739 1.82439025969645252090
H  -5.74959160993628071168 3.77465317336332040199 2.56268965478311994133
H  -5.38974813449030243362 3.90250926215986737589 0.82388136440425518980
H  -4.50592936207385275083 4.91164361408779548412 1.99019893593667118736
H  -2.40170998948078961988 2.22035575869183476883 3.12938028465470097217
H  -4.00518380031068499392 2.14642140558547955820 3.89814165482163588194
H  -3.19713803327477830152 3.71362230862627962225 3.67441294916128979864
H  -1.26040842606780678636 -2.30641470347692090215 -2.41802931024573153351
H  -4.35786626223479611753 -0.36150046526976753469 -0.21092260276481189507
H  -3.65861015134378497748 -2.01649512436162270390 -1.90444329258774702751
H  1.03190515101233337703 -1.73111083695670497917 -2.07305879473536691648
H  2.77283070615195814668 -0.38083423345842892793 -0.96538414755359325259
H  0.23877652341587696228 3.21031993150153027727 2.88753709193760155216
H  2.67640643362001195982 3.02383380283549119127 2.37523936262598489577
H  3.39099788968627180452 1.35983690055050843171 0.65092752466484316010
*
