!XTB goat ddCOSMO(water)

* xyz 0 1 
  C   -3.29503104994019     -0.64462679992355     -0.62111652530007
  C   -2.79237472177815     -1.50068060951883     -1.60577727032567
  C   -1.43862095366715     -1.54247959835514     -1.83687828516427
  C   -2.45061618500934      0.15926339399341      0.11238788500657
  C   -1.04680532610905      0.15377522126596     -0.09029226345631
  O   -3.05622508478166      0.89231285329717      1.12820467078653
  C   -0.55504022013217     -0.73425178029305     -1.09475134937336
  C   0.85062781844231     -0.82018276258933     -1.35567818451792
  C   1.74374538881924     -0.07639820432441     -0.66465380920866
  C   -0.08331853788085      0.96449981528363      0.64184259383543
  C   1.30147762335617      0.83076289397448      0.34549521698967
  N   -0.51016293495800      1.83471722596518      1.58479684567330
  C   0.37669222165832      2.56074422451946      2.24205163462549
  C   1.75888783008372      2.49053929276249      2.02433634308264
  C   2.21635062825543      1.61844970031873      1.06701442833394
  C   -3.31500774522881      2.21857517253875      0.89646748374945
  O   -3.12148026827977      2.74382400916265     -0.18934397774336
  N   -3.81830788776568      2.82593247405035      1.98833744525102
  C   -4.10100331070348      2.13684224501750      3.24276449714838
  C   -4.30301904578004      4.19601436085567      1.88603490415782
  H   -4.00299408735696      4.61832968188490      0.93312585609252
  H   -3.88203560855312      4.79374311348616      2.69625124212385
  H   -5.39352894296766      4.22330156082644      1.96463713149768
  H   -3.46411332678318      1.26669947738301      3.35324077039836
  H   -5.14830812376476      1.82467462542653      3.29281532448293
  H   -3.90587207206067      2.82352888729878      4.06682448182409
  H   -1.02760730440550     -2.20188947486929     -2.59094928809906
  H   -4.35603997609009     -0.60121385762428     -0.41346436515040
  H   -3.46994827584634     -2.12397898021595     -2.17462943024135
  H   1.18183432471646     -1.50580128867441     -2.12585633980196
  H   2.80569579100891     -0.15047460264524     -0.86549674162256
  H   -0.01855386365011      3.24462873312166      2.98680055703308
  H   2.43427901880762      3.11221699829295      2.59660253336206
  H   3.27457420834492      1.52644199830734      0.85323598454994
*
