35
Coordinates from ORCA-job HBQ-H E -878.455883603537
  C      -3.017028     -0.845145      0.129571
  C      -2.568342     -1.871685     -0.706515
  C      -1.274663     -1.867547     -1.173604
  C      -2.170766      0.179918      0.483913
  C      -0.826050      0.217404      0.039426
  O      -2.617014      1.162436      1.358496
  C      -0.386246     -0.840073     -0.812553
  C       0.956334     -0.856770     -1.308411
  C       1.843622      0.114077     -0.993623
  C       0.139978      1.230317      0.376633
  C       1.458196      1.188212     -0.136671
  N      -0.165204      2.265605      1.207713
  C       0.681959      3.236697      1.551496
  C       1.974610      3.235504      1.057999
  C       2.355934      2.208222      0.219483
  C      -3.762587      1.897463      1.008416
  O      -4.177091      1.918323     -0.133051
  N      -4.257442      2.556066      2.063031
  C      -5.361104      3.490846      1.862263
  C      -3.774257      2.432695      3.437032
  H      -3.112760      1.580739      3.538879
  H      -4.632701      2.295433      4.095833
  H      -3.247165      3.341455      3.735932
  H      -5.571364      3.588499      0.802860
  H      -5.087517      4.465183      2.270823
  H      -6.253220      3.131170      2.378829
  H      -0.919679     -2.657598     -1.822203
  H      -4.031187     -0.847532      0.503716
  H      -3.246972     -2.669075     -0.978963
  H       1.245488     -1.676239     -1.953939
  H       2.855950      0.098003     -1.375107
  H       0.296211      3.991024      2.221085
  H       2.656094      4.024728      1.337821
  H       3.362682      2.173960     -0.177673
  H      -1.105628      2.278475      1.592864
35
Coordinates from ORCA-job HBQ-H E -878.455991143390
  C      -3.017407     -0.852989      0.138853
  C      -2.568526     -1.877500     -0.698946
  C      -1.276315     -1.869181     -1.169970
  C      -2.170571      0.169886      0.493142
  C      -0.830076      0.209746      0.047675
  O      -2.612724      1.155842      1.361025
  C      -0.390661     -0.840398     -0.809919
  C       0.947720     -0.846531     -1.313747
  C       1.829187      0.129754     -1.001103
  C       0.129155      1.223514      0.387497
  C       1.442001      1.195213     -0.135786
  N      -0.178250      2.245562      1.232294
  C       0.663389      3.219613      1.577101
  C       1.950564      3.235331      1.070325
  C       2.333488      2.219204      0.219789
  C      -3.749816      1.893079      0.999173
  O      -4.161760      1.905977     -0.143426
  N      -4.240320      2.558784      2.048864
  C      -5.340627      3.495074      1.847668
  C      -3.748406      2.441810      3.418347
  H      -3.087833      1.588665      3.518279
  H      -4.602505      2.310143      4.083798
  H      -3.216586      3.350925      3.707282
  H      -5.554775      3.586800      0.788501
  H      -5.061410      4.470431      2.249749
  H      -6.231006      3.140514      2.370701
  H      -0.921262     -2.655645     -1.822477
  H      -4.031283     -0.854407      0.513165
  H      -3.246246     -2.675167     -0.971977
  H       1.237979     -1.660742     -1.964944
  H       2.838561      0.123920     -1.389784
  H       0.277490      3.963298      2.257869
  H       2.627333      4.027944      1.351174
  H       3.336715      2.196551     -0.186260
  H      -1.114151      2.245772      1.627869
35
Coordinates from ORCA-job HBQ-H E -878.455996968387
  C      -3.014830     -0.858032      0.147445
  C      -2.566182     -1.881834     -0.691117
  C      -1.275695     -1.870672     -1.166782
  C      -2.168566      0.165918      0.499036
  C      -0.829350      0.207401      0.050643
  O      -2.610980      1.151836      1.366319
  C      -0.391071     -0.840420     -0.809704
  C       0.944373     -0.841556     -1.320429
  C       1.823579      0.137996     -1.011934
  C       0.128963      1.221456      0.390025
  C       1.438141      1.199476     -0.141480
  N      -0.175682      2.236436      1.243516
  C       0.665125      3.211049      1.587730
  C       1.948109      3.234906      1.070825
  C       2.328584      2.224718      0.212372
  C      -3.743699      1.892872      0.999423
  O      -4.145653      1.911397     -0.146738
  N      -4.239140      2.559702      2.046295
  C      -5.333413      3.500679      1.837689
  C      -3.757362      2.441174      3.419235
  H      -3.103628      1.583858      3.524959
  H      -4.616877      2.316798      4.079107
  H      -3.220922      3.347094      3.709949
  H      -5.539783      3.592830      0.776944
  H      -5.052467      4.474817      2.241549
  H      -6.228626      3.149893      2.355020
  H      -0.921261     -2.655992     -1.820995
  H      -4.027802     -0.860194      0.524144
  H      -3.242904     -2.681123     -0.961832
  H       1.234006     -1.653989     -1.974119
  H       2.830563      0.137045     -1.406774
  H       0.281705      3.949078      2.276005
  H       2.623790      4.028739      1.350837
  H       3.328984      2.207429     -0.200841
  H      -1.108961      2.230010      1.645478
35
Coordinates from ORCA-job HBQ-H E -878.456000817017
  C      -3.012856     -0.861378      0.155891
  C      -2.564918     -1.884765     -0.683450
  C      -1.276029     -1.871612     -1.163420
  C      -2.166674      0.163419      0.504835
  C      -0.828540      0.206164      0.053214
  O      -2.609560      1.149098      1.372191
  C      -0.391757     -0.840151     -0.809470
  C       0.941073     -0.837352     -1.326629
  C       1.818589      0.145061     -1.022358
  C       0.129722      1.220336      0.392116
  C       1.435556      1.203284     -0.147104
  N      -0.171457      2.229185      1.253786
  C       0.669594      3.203480      1.597735
  C       1.948743      3.233703      1.071673
  C       2.326007      2.228952      0.205521
  C      -3.735665      1.896535      0.998703
  O      -4.130168      1.916425     -0.150189
  N      -4.238876      2.561138      2.043338
  C      -5.330681      3.503393      1.828748
  C      -3.765855      2.440913      3.419242
  H      -3.116909      1.580595      3.529363
  H      -4.629821      2.321288      4.074096
  H      -3.226535      3.344467      3.712231
  H      -5.530315      3.596204      0.766752
  H      -5.051203      4.476998      2.234985
  H      -6.229203      3.153043      2.340644
  H      -0.922592     -2.656216     -1.819067
  H      -4.024973     -0.863677      0.535079
  H      -3.240909     -2.685527     -0.951731
  H       1.229888     -1.648619     -1.982155
  H       2.823220      0.148221     -1.423207
  H       0.289297      3.936457      2.293152
  H       2.624041      4.028094      1.351092
  H       3.323716      2.215937     -0.214345
  H      -1.102881      2.217698      1.660539
35
Coordinates from ORCA-job HBQ-H E -878.456008401207
  C      -3.011532     -0.870033      0.161171
  C      -2.562653     -1.891407     -0.680148
  C      -1.274997     -1.874120     -1.163308
  C      -2.167095      0.156553      0.509261
  C      -0.829899      0.203268      0.054902
  O      -2.612303      1.139967      1.378505
  C      -0.392521     -0.840564     -0.810614
  C       0.938666     -0.832524     -1.332126
  C       1.813637      0.152746     -1.029525
  C       0.126843      1.219079      0.394261
  C       1.430676      1.207510     -0.149964
  N      -0.173601      2.223269      1.261887
  C       0.666460      3.198058      1.606786
  C       1.943321      3.234117      1.075422
  C       2.319838      2.234292      0.203214
  C      -3.732874      1.892796      0.999710
  O      -4.120832      1.915403     -0.151514
  N      -4.236717      2.561399      2.041328
  C      -5.321441      3.510777      1.821306
  C      -3.766695      2.442351      3.418454
  H      -3.126809      1.575718      3.533231
  H      -4.632711      2.334591      4.072543
  H      -3.218308      3.341517      3.708204
  H      -5.518295      3.601214      0.758610
  H      -5.036115      4.483896      2.224723
  H      -6.223272      3.168407      2.332756
  H      -0.921130     -2.656932     -1.820895
  H      -4.022930     -0.874497      0.542495
  H      -3.236794     -2.694050     -0.947585
  H       1.228250     -1.641971     -1.989580
  H       2.816631      0.160588     -1.434468
  H       0.287320      3.926686      2.307429
  H       2.617366      4.029358      1.355501
  H       3.315845      2.225782     -0.220815
  H      -1.104262      2.207546      1.670643
35
Coordinates from ORCA-job HBQ-H E -878.456015397919
  C      -3.010209     -0.879342      0.165520
  C      -2.560666     -1.897807     -0.679078
  C      -1.274353     -1.875629     -1.165568
  C      -2.167722      0.148929      0.513625
  C      -0.831675      0.200237      0.056536
  O      -2.615622      1.129825      1.385140
  C      -0.393711     -0.840242     -0.812934
  C       0.936129     -0.826966     -1.338161
  C       1.809181      0.159910     -1.035151
  C       0.123477      1.217543      0.396776
  C       1.425961      1.210930     -0.151006
  N      -0.176994      2.217926      1.269167
  C       0.661972      3.193061      1.615813
  C       1.937422      3.233769      1.081315
  C       2.313792      2.238465      0.203868
  C      -3.731408      1.887135      1.001159
  O      -4.117003      1.907609     -0.150991
  N      -4.234226      2.561409      2.039491
  C      -5.313432      3.516104      1.814264
  C      -3.763075      2.447958      3.416826
  H      -3.132398      1.575268      3.537152
  H      -4.629135      2.354219      4.072920
  H      -3.204585      3.343236      3.699250
  H      -5.511248      3.600273      0.751253
  H      -5.021763      4.490368      2.210343
  H      -6.216534      3.182871      2.329388
  H      -0.920105     -2.655894     -1.825976
  H      -4.020766     -0.886526      0.549136
  H      -3.233105     -2.701776     -0.946825
  H       1.226306     -1.633844     -1.998500
  H       2.810919      0.171896     -1.443087
  H       0.283458      3.917857      2.320751
  H       2.610448      4.029253      1.363094
  H       3.308646      2.233905     -0.222895
  H      -1.106906      2.198862      1.679184
35
Coordinates from ORCA-job HBQ-H E -878.456020173311
  C      -3.008080     -0.892882      0.171306
  C      -2.557471     -1.907080     -0.677944
  C      -1.273231     -1.877355     -1.169466
  C      -2.168805      0.138050      0.519173
  C      -0.834545      0.196038      0.058458
  O      -2.620308      1.115660      1.393551
  C      -0.395556     -0.839352     -0.816636
  C       0.932263     -0.818455     -1.346947
  C       1.802756      0.170282     -1.042616
  C       0.118308      1.214998      0.400416
  C       1.418973      1.215567     -0.151789
  N      -0.182490      2.209606      1.279484
  C       0.654548      3.185319      1.629084
  C       1.928074      3.233006      1.090486
  C       2.304625      2.244116      0.205921
  C      -3.729863      1.878807      1.002701
  O      -4.113923      1.894982     -0.150022
  N      -4.230354      2.561504      2.036712
  C      -5.302017      3.523188      1.804526
  C      -3.755983      2.457425      3.413780
  H      -3.139809      1.575560      3.542704
  H      -4.621219      2.385872      4.073615
  H      -3.181533      3.346406      3.683916
  H      -5.503508      3.596457      0.741416
  H      -5.000396      4.499646      2.187633
  H      -6.205762      3.204000      2.327235
  H      -0.918271     -2.653788     -1.833995
  H      -4.017248     -0.904556      0.558441
  H      -3.227335     -2.713057     -0.946015
  H       1.223084     -1.621186     -2.012016
  H       2.802930      0.187867     -1.454144
  H       0.276463      3.904674      2.339786
  H       2.599591      4.028817      1.374963
  H       3.298038      2.245246     -0.224211
  H      -1.110875      2.185407      1.692292
35
Coordinates from ORCA-job HBQ-H E -878.456022036837
  C      -3.007444     -0.897715      0.172054
  C      -2.556217     -1.910187     -0.678950
  C      -1.272605     -1.877476     -1.171952
  C      -2.169683      0.134301      0.520081
  C      -0.835957      0.194876      0.058493
  O      -2.622520      1.110562      1.395600
  C      -0.396221     -0.838629     -0.818431
  C       0.931204     -0.815379     -1.349577
  C       1.801119      0.173389     -1.043734
  C       0.116107      1.214135      0.401450
  C       1.416691      1.216717     -0.150923
  N      -0.185410      2.207222      1.281869
  C       0.650729      3.183180      1.632991
  C       1.924196      3.232704      1.094410
  C       2.301473      2.245408      0.208427
  C      -3.730720      1.875061      1.003118
  O      -4.116140      1.888652     -0.149069
  N      -4.229251      2.561017      2.036103
  C      -5.298515      3.524940      1.802325
  C      -3.751105      2.461876      3.412201
  H      -3.142480      1.575293      3.544849
  H      -4.614817      2.401939      4.075106
  H      -3.167937      3.347358      3.675152
  H      -5.504757      3.591615      0.739689
  H      -4.991815      4.503062      2.177166
  H      -6.200894      3.212483      2.331361
  H      -0.917116     -2.652400     -1.837958
  H      -4.016109     -0.911544      0.560413
  H      -3.225070     -2.716878     -0.947330
  H       1.222262     -1.616467     -2.016519
  H       2.801194      0.192272     -1.455401
  H       0.272030      3.901263      2.344639
  H       2.595187      4.028514      1.380106
  H       3.294898      2.247999     -0.221668
  H      -1.113234      2.181626      1.695708
35
Coordinates from ORCA-job HBQ-H E -878.456023873987
  C      -3.006890     -0.901916      0.171924
  C      -2.554898     -1.912669     -0.680732
  C      -1.271794     -1.877030     -1.174921
  C      -2.170737      0.131084      0.520359
  C      -0.837389      0.194114      0.058256
  O      -2.624865      1.106116      1.396691
  C      -0.396775     -0.837491     -0.820359
  C       0.930389     -0.812171     -1.351844
  C       1.799948      0.176321     -1.044080
  C       0.114019      1.213269      0.402487
  C       1.414727      1.217675     -0.149439
  N      -0.188374      2.204838      1.283940
  C       0.646725      3.181098      1.636863
  C       1.920345      3.232369      1.098825
  C       2.298600      2.246363      0.211879
  C      -3.732605      1.870964      1.003133
  O      -4.120176      1.881571     -0.148131
  N      -4.229276      2.559464      2.035669
  C      -5.296262      3.525496      1.800954
  C      -3.744921      2.466802      3.409953
  H      -3.148653      1.572598      3.547924
  H      -4.605953      2.425167      4.077575
  H      -3.147629      3.346066      3.662095
  H      -5.511617      3.581587      0.739505
  H      -4.982510      4.506535      2.162340
  H      -6.195180      3.222376      2.341098
  H      -0.915683     -2.650400     -1.842402
  H      -4.015143     -0.918091      0.561230
  H      -3.222804     -2.720013     -0.949452
  H       1.221574     -1.611551     -2.020794
  H       2.800146      0.196057     -1.455370
  H       0.266929      3.898155      2.348948
  H       2.590829      4.028151      1.385715
  H       3.292310      2.250128     -0.217566
  H      -1.115336      2.177757      1.699526
35
Coordinates from ORCA-job HBQ-H E -878.456026332694
  C      -3.006923     -0.901996      0.170870
  C      -2.554500     -1.912594     -0.681755
  C      -1.271298     -1.876582     -1.175695
  C      -2.171218      0.131186      0.519563
  C      -0.837728      0.194479      0.057839
  O      -2.625471      1.106066      1.395767
  C      -0.396652     -0.836969     -0.820655
  C       0.930704     -0.811659     -1.351470
  C       1.800342      0.176564     -1.043021
  C       0.113602      1.213411      0.402435
  C       1.414662      1.217787     -0.148553
  N      -0.189270      2.204995      1.283427
  C       0.645466      3.181418      1.636850
  C       1.919437      3.232722      1.099683
  C       2.298269      2.246396      0.213335
  C      -3.733607      1.870498      1.002599
  O      -4.121376      1.881558     -0.148540
  N      -4.230953      2.557399      2.036003
  C      -5.296691      3.524810      1.801944
  C      -3.743059      2.466493      3.409075
  H      -3.157159      1.565877      3.549981
  H      -4.602507      2.438323      4.079267
  H      -3.134549      3.339796      3.655224
  H      -5.519095      3.574224      0.741603
  H      -4.978347      4.507689      2.154404
  H      -6.192630      3.227462      2.350084
  H      -0.914854     -2.649788     -1.843203
  H      -4.015249     -0.918795      0.559960
  H      -3.222255     -2.720072     -0.950458
  H       1.221971     -1.610875     -2.020585
  H       2.800835      0.195928     -1.453583
  H       0.264851      3.898723      2.348227
  H       2.589833      4.028550      1.386650
  H       3.292372      2.249963     -0.215199
  H      -1.115880      2.177803      1.699728
35
Coordinates from ORCA-job HBQ-H E -878.456027359952
  C      -3.007302     -0.904135      0.164180
  C      -2.551778     -1.913357     -0.688498
  C      -1.267932     -1.874748     -1.180559
  C      -2.174339      0.130050      0.515300
  C      -0.839746      0.195291      0.056253
  O      -2.630657      1.103707      1.390913
  C      -0.395739     -0.834456     -0.822469
  C       0.932456     -0.807603     -1.350260
  C       1.801433      0.180185     -1.038284
  C       0.110583      1.213471      0.403926
  C       1.412996      1.219600     -0.143446
  N      -0.194858      2.203397      1.284557
  C       0.637436      3.180805      1.641129
  C       1.912595      3.234469      1.107134
  C       2.294551      2.248302      0.221835
  C      -3.741715      1.864898      0.999751
  O      -4.131170      1.876725     -0.150492
  N      -4.241398      2.544788      2.037358
  C      -5.298561      3.521668      1.806289
  C      -3.728934      2.467718      3.402156
  H      -3.207596      1.531343      3.564444
  H      -4.573879      2.524275      4.087788
  H      -3.053198      3.301622      3.607571
  H      -5.565704      3.528771      0.755154
  H      -4.951690      4.514411      2.100690
  H      -6.174110      3.262887      2.404030
  H      -0.909281     -2.646561     -1.848498
  H      -4.016338     -0.924350      0.551327
  H      -3.218303     -2.721592     -0.957892
  H       1.224820     -1.605401     -2.020599
  H       2.803025      0.199339     -1.446097
  H       0.252770      3.897635      2.350735
  H       2.581995      4.030860      1.395030
  H       3.290196      2.252598     -0.203150
  H      -1.119559      2.174176      1.704496
35
Coordinates from ORCA-job HBQ-H E -878.456037145560
  C      -3.008037     -0.898136      0.164964
  C      -2.553900     -1.909696     -0.685641
  C      -1.269369     -1.875296     -1.176137
  C      -2.172581      0.134438      0.515613
  C      -0.837657      0.196271      0.057024
  O      -2.627056      1.109905      1.390066
  C      -0.395073     -0.836107     -0.819460
  C       0.933432     -0.812166     -1.347047
  C       1.802984      0.175960     -1.037857
  C       0.113557      1.214727      0.402596
  C       1.415767      1.218241     -0.145573
  N      -0.190642      2.207167      1.281559
  C       0.643247      3.184277      1.635318
  C       1.918175      3.235184      1.100520
  C       2.298658      2.247084      0.216709
  C      -3.738302      1.870854      0.999629
  O      -4.124332      1.886904     -0.151956
  N      -4.241219      2.546857      2.037764
  C      -5.301414      3.521038      1.807628
  C      -3.738220      2.459821      3.405722
  H      -3.198534      1.532309      3.558463
  H      -4.589279      2.489542      4.085710
  H      -3.081645      3.304598      3.627841
  H      -5.554637      3.542863      0.753258
  H      -4.963750      4.510673      2.122059
  H      -6.183306      3.248460      2.389806
  H      -0.911769     -2.649232     -1.842185
  H      -4.017569     -0.914868      0.550926
  H      -3.221930     -2.716790     -0.954837
  H       1.225485     -1.612283     -2.014746
  H       2.804357      0.193947     -1.446324
  H       0.260330      3.902711      2.344307
  H       2.588316      4.031518      1.386708
  H       3.293824      2.249715     -0.209378
  H      -1.116841      2.180301      1.698752
35
Coordinates from ORCA-job HBQ-H E -878.456042988556
  C      -3.008715     -0.893397      0.164192
  C      -2.555094     -1.906529     -0.684827
  C      -1.269886     -1.875022     -1.173680
  C      -2.171737      0.138090      0.514942
  C      -0.836376      0.197571      0.057215
  O      -2.625347      1.114821      1.388215
  C      -0.394334     -0.836549     -0.817570
  C       0.934612     -0.814472     -1.344468
  C       1.804330      0.173973     -1.036815
  C       0.115313      1.216084      0.402019
  C       1.417584      1.218023     -0.146227
  N      -0.188225      2.209751      1.280336
  C       0.646681      3.186504      1.632899
  C       1.921542      3.235829      1.097872
  C       2.301254      2.246819      0.214703
  C      -3.738119      1.873643      0.998863
  O      -4.121635      1.892945     -0.153762
  N      -4.245146      2.544023      2.038336
  C      -5.305209      3.518882      1.809410
  C      -3.741751      2.453850      3.406160
  H      -3.206983      1.523338      3.558106
  H      -4.592531      2.488001      4.086191
  H      -3.080623      3.294965      3.628691
  H      -5.561163      3.538966      0.755679
  H      -4.966373      4.508924      2.121347
  H      -6.185487      3.247507      2.394457
  H      -0.912677     -2.650428     -1.838241
  H      -4.018840     -0.907803      0.548696
  H      -3.224091     -2.712807     -0.954189
  H       1.226811     -1.616175     -2.010194
  H       2.805691      0.191269     -1.445378
  H       0.264721      3.905554      2.341805
  H       2.592173      4.031946      1.383408
  H       3.296230      2.248479     -0.211789
  H      -1.115530      2.184215      1.695398
35
Coordinates from ORCA-job HBQ-H E -878.456046708978
  C      -3.009244     -0.891335      0.162293
  C      -2.555361     -1.905094     -0.685822
  C      -1.269585     -1.874786     -1.173227
  C      -2.171819      0.139740      0.513571
  C      -0.836038      0.198229      0.057034
  O      -2.625614      1.116900      1.386445
  C      -0.393693     -0.836590     -0.816841
  C       0.935803     -0.815244     -1.342655
  C       1.805319      0.173386     -1.035120
  C       0.115568      1.216919      0.402088
  C       1.418189      1.218236     -0.145490
  N      -0.188350      2.211282      1.279847
  C       0.646762      3.187910      1.632303
  C       1.921925      3.236475      1.097965
  C       2.301919      2.247138      0.215287
  C      -3.739956      1.873845      0.998078
  O      -4.122574      1.895024     -0.154908
  N      -4.249520      2.539871      2.039022
  C      -5.307433      3.517564      1.811308
  C      -3.740614      2.450537      3.405106
  H      -3.219611      1.512604      3.559985
  H      -4.587864      2.501709      4.088270
  H      -3.065648      3.282592      3.620292
  H      -5.573181      3.528983      0.759902
  H      -4.962113      4.509217      2.111029
  H      -6.182918      3.254624      2.407086
  H      -0.912126     -2.650832     -1.836899
  H      -4.019783     -0.904770      0.545724
  H      -3.224551     -2.711016     -0.955792
  H       1.228581     -1.617610     -2.007322
  H       2.806906      0.190570     -1.443166
  H       0.264894      3.907199      2.341038
  H       2.592513      4.032547      1.383737
  H       3.296998      2.248532     -0.210964
  H      -1.116712      2.186434      1.692598
35
Coordinates from ORCA-job HBQ-H E -878.456047652608
  C      -3.009040     -0.893430      0.162386
  C      -2.554815     -1.906389     -0.686471
  C      -1.269229     -1.874837     -1.174337
  C      -2.172113      0.137986      0.513959
  C      -0.836486      0.197527      0.057285
  O      -2.626765      1.114744      1.387221
  C      -0.393844     -0.836324     -0.817610
  C       0.935439     -0.813649     -1.343971
  C       1.804427      0.175262     -1.035876
  C       0.114652      1.216450      0.403059
  C       1.417029      1.219049     -0.145050
  N      -0.189565      2.209635      1.282087
  C       0.645105      3.186275      1.635280
  C       1.920023      3.236164      1.100410
  C       2.300298      2.248142      0.216421
  C      -3.741156      1.871501      0.998236
  O      -4.124408      1.891198     -0.154526
  N      -4.250127      2.538737      2.038755
  C      -5.306294      3.518164      1.810082
  C      -3.737619      2.452916      3.403802
  H      -3.222603      1.512140      3.561730
  H      -4.582584      2.513136      4.088968
  H      -3.056420      3.281392      3.613164
  H      -5.576962      3.523792      0.759895
  H      -4.956918      4.510737      2.102058
  H      -6.179545      3.261176      2.411617
  H      -0.911519     -2.650179     -1.838672
  H      -4.019433     -0.907487      0.546208
  H      -3.223450     -2.712601     -0.956893
  H       1.228514     -1.615191     -2.009491
  H       2.805851      0.193567     -1.444274
  H       0.263338      3.904489      2.345152
  H       2.590156      4.032346      1.387020
  H       3.295148      2.250673     -0.210363
  H      -1.118014      2.183678      1.694540
35
Coordinates from ORCA-job HBQ-H E -878.456048043436
  C      -3.009002     -0.895506      0.161938
  C      -2.554290     -1.907763     -0.687455
  C      -1.268766     -1.875112     -1.175431
  C      -2.172620      0.136221      0.513922
  C      -0.837036      0.196752      0.057354
  O      -2.627934      1.112427      1.387748
  C      -0.393923     -0.836344     -0.818201
  C       0.935304     -0.812638     -1.344646
  C       1.803831      0.176478     -1.035930
  C       0.113612      1.215950      0.403733
  C       1.415939      1.219511     -0.144413
  N      -0.191215      2.208490      1.283247
  C       0.642861      3.185351      1.636945
  C       1.917796      3.236205      1.102108
  C       2.298667      2.248900      0.217607
  C      -3.742030      1.869714      0.998378
  O      -4.126073      1.888371     -0.154012
  N      -4.249780      2.538374      2.038713
  C      -5.304490      3.519301      1.809521
  C      -3.734889      2.454752      3.403059
  H      -3.223155      1.512446      3.562797
  H      -4.578354      2.520149      4.089561
  H      -3.050182      3.281286      3.608783
  H      -5.578491      3.521274      0.760189
  H      -4.952028      4.512298      2.096401
  H      -6.176306      3.266569      2.414880
  H      -0.910694     -2.649847     -1.840265
  H      -4.019275     -0.910245      0.546022
  H      -3.222347     -2.714287     -0.958317
  H       1.228741     -1.613529     -2.010792
  H       2.805249      0.195592     -1.444306
  H       0.260841      3.903052      2.347204
  H       2.587377      4.032664      1.389280
  H       3.293504      2.252233     -0.209227
  H      -1.119771      2.181700      1.695406
35
Coordinates from ORCA-job HBQ-H E -878.456048031549
  C      -3.008930     -0.896521      0.162066
  C      -2.554045     -1.908425     -0.687643
  C      -1.268615     -1.875216     -1.175840
  C      -2.172768      0.135321      0.514201
  C      -0.837239      0.196359      0.057522
  O      -2.628379      1.111308      1.388178
  C      -0.394018     -0.836305     -0.818489
  C       0.935065     -0.811989     -1.345246
  C       1.803360      0.177292     -1.036391
  C       0.113222      1.215645      0.404154
  C       1.415382      1.219834     -0.144339
  N      -0.191670      2.207580      1.284290
  C       0.642151      3.184525      1.638200
  C       1.916907      3.236123      1.102941
  C       2.297871      2.249370      0.217874
  C      -3.742254      1.868876      0.998431
  O      -4.126532      1.886881     -0.153830
  N      -4.249464      2.538412      2.038518
  C      -5.303628      3.519831      1.808847
  C      -3.733935      2.455852      3.402688
  H      -3.222880      1.513306      3.563221
  H      -4.577005      2.522674      4.089524
  H      -3.048471      3.282081      3.607168
  H      -5.578916      3.520122      0.759849
  H      -4.950008      4.513065      2.093503
  H      -6.174888      3.268890      2.415730
  H      -0.910447     -2.649639     -1.840989
  H      -4.019140     -0.911549      0.546311
  H      -3.221846     -2.715111     -0.958640
  H       1.228587     -1.612524     -2.011782
  H       2.804678      0.196894     -1.444991
  H       0.260189      3.901776      2.348944
  H       2.586228      4.032730      1.390316
  H       3.292587      2.253226     -0.209238
  H      -1.120078      2.180099      1.696743
