35
Coordinates from ORCA-job HBQ-H E -878.456048031549
  C          -3.00892977754285     -0.89652143574384      0.16206590616990
  C          -2.55404494050369     -1.90842475481784     -0.68764296859761
  C          -1.26861458604752     -1.87521647608227     -1.17584023745000
  C          -2.17276810195732      0.13532056041813      0.51420128906956
  C          -0.83723944788297      0.19635862741203      0.05752223141952
  O          -2.62837896153110      1.11130776203831      1.38817764006792
  C          -0.39401827966606     -0.83630507186958     -0.81848919927248
  C           0.93506520043364     -0.81198858256814     -1.34524628011358
  C           1.80335987696601      0.17729193024082     -1.03639142481120
  C           0.11322202568686      1.21564527781629      0.40415445323874
  C           1.41538161683756      1.21983361921252     -0.14433866326114
  N          -0.19167005544244      2.20757960189096      1.28428954911262
  C           0.64215100246853      3.18452524777696      1.63819962128623
  C           1.91690655091163      3.23612326433707      1.10294117232149
  C           2.29787124208053      2.24936962638736      0.21787396630409
  C          -3.74225363462992      1.86887619104689      0.99843085303538
  O          -4.12653193553096      1.88688144200964     -0.15383009510086
  N          -4.24946445759951      2.53841181760910      2.03851788201327
  C          -5.30362842790235      3.51983057185256      1.80884694260816
  C          -3.73393485848264      2.45585177319880      3.40268797444309
  H          -3.22288004403122      1.51330638642140      3.56322147300011
  H          -4.57700509202122      2.52267370343122      4.08952368559474
  H          -3.04847104732898      3.28208084235227      3.60716793644335
  H          -5.57891550623877      3.52012211781089      0.75984945794898
  H          -4.95000776758236      4.51306511471838      2.09350286817820
  H          -6.17488846095682      3.26888979293598      2.41573002388818
  H          -0.91044748207618     -2.64963888855932     -1.84098899901431
  H          -4.01914039531939     -0.91154928467551      0.54631110630157
  H          -3.22184595762762     -2.71511063963319     -0.95863973219397
  H           1.22858661820091     -1.61252428331690     -2.01178222570059
  H           2.80467818498884      0.19689369960979     -1.44499118567308
  H           0.26018873618416      3.90177608742368      2.34894399233452
  H           2.58622849837299      4.03272994781402      1.39031602966792
  H           3.29258724943242      2.25322571237220     -0.20923846316425
  H          -1.12007758466200      2.18009869912923      1.69674341990544
