! B3LYP/G OPT FREQ 6-311G* CPCM(Water)

%tddft
    NRoots 3
    IRoot 1
end 

* xyz 1 1 
C  -3.49985472158126853515 -0.67978288923356378071 0.53957230473077688604
C  -3.92414923795887116142 -1.53304327693088926488 1.55966505340732641827
C  -3.19769703557933748783 -1.65955627148112383473 2.71785193869592545113
C  -2.40078250816331362216 0.12771817137673702192 0.72732522935105170525
C  -1.70559831910092718488 0.10796397259406664837 1.96207571061824470604
O  -1.79411338287509969369 0.86663411836919568287 -0.26020691258468964246
C  -2.05508515231825494851 -0.87516036534407359859 2.92412106566507024041
C  -1.19668873434042288828 -1.09623467148872344445 4.04091973499458045893
C  -0.01054373620439674752 -0.45289552910624952808 4.15122009404234937335
C  -0.59880695028364316901 0.95908652690216555925 2.23791721681098820795
C  0.33085132853755294668 0.59403595585457114048 3.24792145772466867015
N  -0.41077620906755285546 2.13351562407234718322 1.57652828089344110296
C  0.75522043969822427734 2.78972774423197122928 1.65451501051884841687
C  1.77846586639428205778 2.35421731891288832372 2.46979606346076741019
C  1.53317007957761064496 1.30427298615305486962 3.33738179515305466438
C  -2.39407486016565007603 1.16661663629782230700 -1.45973125363622235895
O  -3.60473078470933838702 1.23179057973581373986 -1.60227101872922617076
N  -1.49328500174449008142 1.40764680746045645066 -2.40806546050633762945
C  -0.06110937594406395945 1.34404662189103829562 -2.20134630883710435967
C  -1.92253563802773497216 1.86571609368726365474 -3.71208624017723742838
H  -3.00531801497292905267 1.97039798071353788878 -3.71549270065756065407
H  -1.63088942164448758021 1.14123151594123561914 -4.47295262064837295668
H  -1.46172667908629372313 2.82699668437035889212 -3.93547462810555348511
H  0.17497626316558734239 0.64937379850395138270 -1.40049781548137808329
H  0.32869637198882473150 2.33113243022239657876 -1.95016052459294186860
H  0.39992636537168646527 0.99859891663641653370 -3.12448425733177437280
H  -3.48446897046624659566 -2.37899856319016755890 3.46778210391037200466
H  -4.03289389896780559042 -0.65429211844319046243 -0.39709615572024870023
H  -4.80685359651881150000 -2.13127993606515531155 1.39959644306074504350
H  -1.49049368489179623332 -1.84457191905525452746 4.75946743655530202233
H  0.68683346611489048961 -0.69413463931632901627 4.93674776604900333865
H  0.82049000931019056004 3.69549568426851138270 1.07147205753417829044
H  2.71750883274800969502 2.88171512199147406008 2.47886555856424584121
H  2.25481042919112084633 1.02762497591740342706 4.09032766383525814291
P  -1.78216249224969258691 3.15588614618494300856 1.14073984439686015868
O  -3.12919000678561021189 2.62204946293308704952 1.34951432476600574617
O  -1.29931015375699887571 3.62554359497099643050 -0.27602111803922790845
O  -1.45833851731499808402 4.40148770823407176067 2.07322622994741845304
C  -2.15686484936034883475 4.39695181680244129296 -1.13488139113903008237
C  -2.15419151492421523386 4.60251840574539983209 3.30751707683139883898
C  -2.56542133472204136879 5.71679388454171810707 -0.51332613826449902117
H  -3.04416545460698362291 3.80468142998303626712 -1.38077823386771125769
H  -1.56052431419636983279 4.55575842247840778754 -2.03480119461128206027
H  -3.21579634185267204671 5.54307547017608559514 0.34249683478435177797
H  -3.10639090449870147737 6.30636986814042188598 -1.24783273279633322161
H  -1.68873961640647385352 6.27020149939168458531 -0.18663763276638711819
C  -1.60148243053142458336 3.71995302672829986079 4.41078821917505425887
H  -3.21785704516403692210 4.39832443271750417324 3.15232610558824744018
H  -2.01433755817704174262 5.66033115148428933594 3.53673530320846563058
H  -2.06882297573525386625 3.99121547138249255227 5.35275920172200425640
H  -0.52641303945259931840 3.85304693211817905762 4.49857303135144004358
H  -1.82477497801483234952 2.67526521088475321974 4.20124815487631497746
*
