## avogadro generated ORCA input file 
# Basic Mode
# 
! B3LYP/G Def2-TZVP(-f) Def2-TZVP/C Def2/J RIJCOSX TightSCF ESD(FLUOR) CPCM(Water) AllPop SOSCF
%maxcore 5000
%tddft
  nroots 20
  iroot 1
end

%esd
  GSHESSIAN "NMU-DCP-GS.hess"
  ESHESSIAN "NMU-DCP_ES.hess"
  DOHT TRUE
  LINES VOIGT
  LINEW 50
  INLINEW 200
end

%output
  print[p_mos] true
  print[p_basis] 5
end

* xyz 1 1
   C       -6.46945       -1.53499       -0.10028
   C       -6.42096       -2.80224       -0.93503
   C       -5.39134       -3.75787       -0.34579
   H       -6.15816       -2.55045       -1.96593
   H       -7.41131       -3.25927       -0.94926
   C       -4.05984       -3.07180       -0.15414
   H       -5.26142       -4.63607       -0.98008
   H       -5.75497       -4.12073        0.62189
   C       -4.00531       -1.64957        0.04138
   N       -5.14960       -0.91118        0.01314
   H       -6.86323       -1.75691        0.89994
   H       -7.13561       -0.80131       -0.55517
   C       -5.14141        0.49869        0.40401
   C       -3.88164        1.19494       -0.07903
   H       -5.22848        0.58304        1.49496
   H       -6.02656        0.96300       -0.02988
   C       -2.64894        0.47885        0.45984
   H       -3.89342        2.23487        0.24995
   H       -3.86859        1.19545       -1.17195
   C       -2.75065       -1.01331        0.25307
   H       -2.53574        0.69359        1.52793
   H       -1.74811        0.85712       -0.02417
   C       -2.89815       -3.79686       -0.14777
   C       -1.61878       -1.80428        0.26576
   C       -1.64125       -3.19548        0.06536
   O       -0.41892       -1.17893        0.49350
   C        0.79401       -1.83448        0.53310
   C       -0.42384       -3.89603        0.10329
   C        0.77818       -3.26861        0.33023
   O        1.77405       -1.13626        0.72279
   C        2.05065       -4.00451        0.35810
   C        3.11217       -3.66985        1.21619
   C        2.24385       -5.09300       -0.48099
   N        3.38761       -5.81440       -0.45820
   C        4.40497       -5.49391        0.37026
   C        4.28100       -4.41303        1.21542
   H        1.49968       -5.40369       -1.19874
   H        5.09817       -4.16601        1.87746
   H        5.28168       -6.11969        0.31974
   H        3.01128       -2.83133        1.88770
   H       -2.93838       -4.86907       -0.30324
   H       -0.45577       -4.97130       -0.03173
   P        3.55575       -7.24145       -1.54235
   O        4.91970       -7.74793       -1.37905
   O        3.07187       -6.69702       -2.91944
   O        2.33542       -8.12779       -1.14367
   C        2.35556       -8.98683        0.06185
   C        3.96530       -5.95742       -3.84324
   C        1.02539       -9.69032        0.14057
   H        2.52803       -8.34511        0.92543
   H        3.18435       -9.68308       -0.04884
   H        3.34966       -5.13734       -4.20334
   C        4.41740       -6.86705       -4.95767
   H        4.80170       -5.55252       -3.27529
   H        0.20842       -8.97438        0.23363
   H        1.02280      -10.33362        1.02237
   H        0.85942      -10.31142       -0.74005
   H        3.56260       -7.27455       -5.49825
   H        5.02404       -7.68841       -4.57572
   H        5.02291       -6.28708       -5.65714


*
