! B3LYP/G OPT Freq Def2-TZVP(-f) Def2-TZVP/C Def2/J RIJCOSX TightSCF CPCM(Water) AllPop SOSCF
%maxcore 3000

%scf
       MaxIter 125
       CNVDIIS 1
       CNVSOSCF 1 
end

%tddft
    NRoots 1
    IRoot 1
end 

* xyz 0 1
   C       -3.31065        0.03709       -0.59095
   C       -2.95550       -1.29476       -0.74846
   C       -1.62830       -1.67132       -0.60267
   C       -2.34974        1.00114       -0.27693
   C       -0.98697        0.64104       -0.13176
   O       -2.80434        2.30557       -0.16605
   C       -0.65316       -0.71947       -0.30083
   C        0.66268       -1.15636       -0.17245
   C        1.66999       -0.25468        0.12861
   C        0.04392        1.56409        0.18416
   C        1.36748        1.09093        0.30776
   N       -0.20478        2.88644        0.37860
   C        0.79993        3.73588        0.67832
   C        2.11836        3.31823        0.80577
   C        2.40510        1.97268        0.61781
   C       -3.85249        2.77775        0.55453
   O       -4.52616        3.70322        0.14759
   N       -4.06536        2.21490        1.78096
   C       -5.24828        2.58682        2.57427
   C       -3.06358        1.44177        2.53867
   H       -2.06159        1.81923        2.31845
   H       -3.12976        0.38587        2.26527
   H       -3.23728        1.54266        3.61341
   H       -6.11571        2.69417        1.91690
   H       -5.05935        3.53714        3.08075
   H       -5.46568        1.81376        3.31634
   H       -1.35573       -2.71669       -0.73055
   H       -4.35066        0.32804       -0.71812
   H       -3.71214       -2.03697       -0.99031
   H        0.91093       -2.20682       -0.30733
   H        2.69410       -0.60782        0.22617
   H        0.51861        4.77819        0.81518
   H        2.90559        4.02785        1.04752
   H        3.42868        1.61826        0.71375
*
