! CAM-B3LYP Def2-TZVP(-f) ESD(FLUOR) CPCM(Water)
%tddft
  nroots 3
  iroot 1
end

%esd
  GSHESSIAN "hbq-dcp-gs.hess"
  ESHESSIAN "hbq-dcp-es.hess"
  DOHT TRUE
  LINES VOIGT
  LINEW 50
  INLINEW 200
  UNIT NM
end

%output
  print[p_mos] true
  print[p_basis] 5
end

* xyz 1 1
  C          -3.37987200130139     -0.95651424837078      1.59993050437362
  C          -3.18000132852903     -1.86065273879298      2.64422007801736
  C          -1.98994748980632     -1.89411027891154      3.31781057207392
  C          -2.41560399488449     -0.02961396912021      1.30255153721927
  C          -1.21290998513012      0.03985306944872      2.04765934033942
  O          -2.46377035505709      0.75964612359837      0.18473384820788
  C          -0.97327164064907     -0.98640575679832      2.99423957205980
  C           0.33586860287359     -1.17610419125417      3.53723027434264
  C           1.37754041863755     -0.46093725749667      3.08351025413306
  C          -0.14842241976777      0.97788501465998      1.81105132466555
  C           1.16153086265189      0.63449840622720      2.19299626229823
  N          -0.32280620029080      2.21777600834082      1.22376187740350
  C           0.72983728700691      2.90020615364107      0.73474576959986
  C           2.02173060276110      2.46642989146999      0.89143523560590
  C           2.23627002752200      1.37942537951805      1.70402969998305
  C          -3.64816880151945      1.05594529461837     -0.45901930529568
  O          -4.70173787280584      1.15295137296905      0.13391044013207
  N          -3.45565791297621      1.24864682609612     -1.76595779623995
  C          -2.18222765933804      1.10516906835710     -2.45206107154024
  C          -4.56237401611268      1.70645174698530     -2.58731189776033
  H          -4.74982514126143      0.98676270391788     -3.38487394080783
  H          -4.31510198111891      2.66933208191121     -3.03660587834137
  H          -5.45231699898422      1.81034643015073     -1.97790236247259
  H          -1.79011415685874      2.08534659429603     -2.72847756061018
  H          -2.33921617606823      0.52429280668203     -3.36079118839428
  H          -1.46196834158131      0.59434790515278     -1.82607917727586
  H          -1.79836977937766     -2.64609844755363      4.07110915927273
  H          -4.28249639541568     -1.00193791729547      1.01320712761517
  H          -3.95875716891149     -2.57433626791366      2.87701934527015
  H           0.47827003923075     -1.97153237392175      4.25639146239319
  H           2.39090656940881     -0.66695285993782      3.39997790076323
  H           0.50858916135843      3.84422357497291      0.26060041762496
  H           2.83213994340033      3.03541391291837      0.46281563599182
  H           3.24214544217325      1.08163681078449      1.97098874808379
  P          -1.73701321484283      3.25331154969398      1.55610761303380
  O          -2.69020087693479      2.59031430549934      2.43332949066714
  O          -2.09368424170475      3.64300052346135      0.09765205878295
  O          -1.07537568749756      4.54423203942163      2.13485794262205
  C          -3.00514773058139      4.74954230930587     -0.21980473859890
  C          -1.00128332695260      4.84213733368590      3.56583972826338
  C          -2.63728922709049      5.27884893692612     -1.57634189720589
  H          -2.90402478076294      5.51116542602474      0.55071329027658
  H          -4.01202948590000      4.33932187718870     -0.19643215496479
  H          -1.62469958158217      5.68048850784780     -1.57568557937363
  H          -3.32766298110541      6.08051348489945     -1.83997311888443
  H          -2.71129346955800      4.49778298464410     -2.33182710621336
  C           0.36431428174426      4.51336545472420      4.10558165070668
  H          -1.78837274757057      4.28683282223623      4.06977956737191
  H          -1.21679000523460      5.90515301696214      3.62985401190264
  H           0.40497532444847      4.80272834549767      5.15618670590825
  H           1.13820134047859      5.06002720017068      3.56787836889988
  H           0.57117524406103      3.44490302851590      4.03828795826313
*
