! CAM-B3LYP VERYTIGHTOPT FREQ Def2-TZVP(-f) TightSCF CPCM(Water)
%pal nprocs 128 end


* xyz 1 1 
  C          -3.37988090847448     -0.95649081105051      1.59998681255287
  C          -3.17999799887667     -1.86059864849857      2.64430167262198
  C          -1.98993217353967     -1.89404362392514      3.31787161496418
  C          -2.41561420937581     -0.02960321022328      1.30256697656497
  C          -1.21291520843335      0.03988726578492      2.04766075894985
  O          -2.46377931672568      0.75961562021732      0.18471891266408
  C          -0.97325957712692     -0.98634899948477      2.99425982762586
  C           0.33589046313714     -1.17602943932287      3.53723064388047
  C           1.37755264823990     -0.46086648249396      3.08347942145132
  C          -0.14843851574394      0.97792305783381      1.81102213290940
  C           1.16152362692746      0.63455192009845      2.19294881714814
  N          -0.32284334822190      2.21780430000059      1.22371647720156
  C           0.72978596528868      2.90023535538634      0.73466788056481
  C           2.02168543431411      2.46646875953223      0.89133993390096
  C           2.23624843854749      1.37948112231162      1.70395161963717
  C          -3.64817219501633      1.05592639388237     -0.45903841894790
  O          -4.70173326550074      1.15299944212373      0.13389264701466
  N          -3.45565805524774      1.24855010460091     -1.76598858496055
  C          -2.18223628320655      1.10498340434534     -2.45208951960569
  C          -4.56235117835681      1.70635956305184     -2.58736913568368
  H          -4.74983461194434      0.98663295056947     -3.38488985826714
  H          -4.31503314831907      2.66920323556530     -3.03671796875183
  H          -5.45229091201933      1.81033070411390     -1.97796740590455
  H          -1.79008491791099      2.08512968914845     -2.72856465946944
  H          -2.33925311698481      0.52406120925908     -3.36078592491353
  H          -1.46199313047741      0.59416584134289     -1.82608407460844
  H          -1.79834235728674     -2.64601230694030      4.07118620387656
  H          -4.28251201395159     -1.00193048700603      1.01327488733732
  H          -3.95875122587267     -2.57427385497140      2.87713312366887
  H           0.47830668534994     -1.97144121301545      4.25640630244820
  H           2.39092475258424     -0.66687250521773      3.39993396321662
  H           0.50852125159917      3.84424516142773      0.26051254940747
  H           2.83208368066840      3.03545093758770      0.46269691086820
  H           3.24213073047830      1.08170586776902      1.97089848316777
  P          -1.73704781440349      3.25333330655933      1.55609020946273
  O          -2.69025310901377      2.59029203078681      2.43326143154311
  O          -2.09369272862783      3.64309342480563      0.09764467001408
  O          -1.07540544402641      4.54421079418835      2.13492257958247
  C          -3.00511866773153      4.74966864773786     -0.21979250818506
  C          -1.00131449573651      4.84202331996036      3.56592624678095
  C          -2.63720123665341      5.27902674535506     -1.57629389444561
  H          -2.90400606220618      5.51126032433336      0.55075903583752
  H          -4.01201229549617      4.33947342537470     -0.19647202861007
  H          -1.62459458410103      5.68062583448718     -1.57558543719572
  H          -3.32753305760613      6.08073341220776     -1.83990710428130
  H          -2.71121204134382      4.49799969396627     -2.33181936297684
  C           0.36428916808181      4.51322015705128      4.10563265016351
  H          -1.78839604788872      4.28667097146189      4.06982656758184
  H          -1.21683443805426      5.90503174718370      3.63001290344051
  H           0.40495292322459      4.80250049095804      5.15626049185993
  H           1.13816822616203      5.05993216707955      3.56797005938269
  H           0.57115566959242      3.44476319875528      4.03825046770398
*
