! B3LYP/G Def2-TZVP(-f) Def2-TZVP/C Def2/J RIJCOSX TightSCF ESD(FLUOR) CPCM(Water) AllPop SOSCF
%maxcore 5000
%tddft
  nroots 5
  iroot 1
end

%esd
  GSHESSIAN "NMU-H_GS.hess"
  ESHESSIAN "NMU-H_ES.hess"
  DOHT TRUE
  LINES VOIGT
  LINEW 50
  INLINEW 200
end

%output
  print[p_mos] true
  print[p_basis] 5
end

* xyz 1 1
  C   -6.62301999317670     -1.49584103295711     -0.05519798972172
  C   -6.60644556476160     -2.60519172662372     -1.09170592408994
  C   -5.59573730000057     -3.66717552336526     -0.67811714750573
  H   -6.34213521744953     -2.18991032762246     -2.06785734751549
  H   -7.60680018119213     -3.03222289406620     -1.17459755603997
  C   -4.24750032428526     -3.05029991795190     -0.39354916200243
  H   -5.49251012222003     -4.43458599749307     -1.44682135893228
  H   -5.96125575907918     -4.17219488017461      0.22281528468842
  C   -4.16066480849092     -1.68551800969631      0.04702243672808
  N   -5.28872149687745     -0.93025670986178      0.15552311574889
  H   -7.02074542898765     -1.87324669849858      0.89561984593089
  H   -7.27188882632973     -0.68073266090711     -0.37673355917402
  C   -5.25114292212515      0.39790526162542      0.76887473369406
  C   -3.97000303513967      1.13224995265483      0.41691512969954
  H   -5.35166265624049      0.30715425516855      1.85807362345042
  H   -6.11980133394865      0.94756229754657      0.40696145441558
  C   -2.76067067470429      0.30373341050377      0.83379018165714
  H   -3.96033388177486      2.10145421707885      0.91720417905734
  H   -3.94565820028105      1.31693895243888     -0.66007814874377
  C   -2.89118007116006     -1.12313245107127      0.35855084148554
  H   -2.66255361420210      0.31916404972951      1.92475421408410
  H   -1.84405001409429      0.74225383400139      0.43895270440365
  C   -3.10114569393158     -3.78508845194142     -0.53605713854829
  C   -1.77506031910654     -1.92236106640704      0.20765473426142
  C   -1.82910466721931     -3.25282620172819     -0.24257285569023
  O   -0.55877140675285     -1.37070727665518      0.52206417384476
  C   0.64264493993655     -2.04080785251422      0.41215975281609
  C   -0.62581518722495     -3.96741126924846     -0.35993873540570
  C   0.59427366123082     -3.41292588303307     -0.04990539967367
  O   1.63772105814040     -1.40218264512949      0.70506709661920
  C   1.84848987641414     -4.16527433641261     -0.19530183569079
  C   2.95493674413115     -3.99836112167055      0.65487688548978
  C   1.98024712019211     -5.10747323091957     -1.20979277988403
  N   3.10702727622953     -5.82218812485805     -1.33689847575580
  C   4.17110012894551     -5.68063792013495     -0.53067116285364
  C   4.10736138560759     -4.75216537476703      0.48563513558834
  H   1.21494471001242     -5.30503557538317     -1.94483157774667
  H   4.95301750319886     -4.62791444587893      1.14608705321002
  H   5.02337642494360     -6.31079718110566     -0.73305562839487
  H   2.90333217662675     -3.27895065673391      1.45717206528797
  H   -3.16510863302078     -4.81191686889087     -0.87795060033314
  H   -0.68210584626832     -4.99897077263406     -0.68837790037045
  H   3.15929017443630     -6.49849114441189     -2.09285235808859
*
