! B3LYP/G OPT FREQ 6-311G* CPCM(Water)

* xyz 0 1 
C  -3.29921184439669579191 -0.45162748885488657180 -0.51145933460779513524
C  -2.88749523341894853701 -1.38196709120748040256 -1.46391864040409136472
C  -1.55235709768345642168 -1.55795970609206624324 -1.71623257511989035784
C  -2.37179160551955270364 0.30142074193972134832 0.17554097775812160798
C  -0.98665610260004321663 0.13844401925796900876 -0.05228766127261796903
O  -2.77897331626587984488 1.19744443718923654352 1.14604095310235143401
C  -0.58648830868261137006 -0.81187239673735001055 -1.02235698735559243922
C  0.79827700271735646531 -1.00182264257843223199 -1.30173919535367610401
C  1.75010831276037293058 -0.28474711600773638942 -0.66414959656355021522
C  0.02762660792592086523 0.89132762912318708182 0.64279033991142886517
C  1.39176371710701629603 0.67748363904995223539 0.31936093454803216041
N  -0.33181316507982905328 1.77808066557021060561 1.58307050656449188608
C  0.59341583787015106388 2.47015161720673859236 2.20180133678410694387
C  1.96192325854424587384 2.34429124315032755277 1.94877079534612285272
C  2.35868379199655198164 1.43437223047995465741 1.00051329554998313931
C  -3.73659616537838612516 2.11605010419519468101 0.86418990098766901298
O  -4.28056906625206856631 2.21271574232097911761 -0.22807212982313418426
N  -3.99725059884335642835 2.90186861786841543420 1.91200059233324126673
C  -3.30984090740786562890 2.79301661863110606276 3.18075966283575972682
C  -5.03565380577187049482 3.90454973609885769292 1.82928958272003372443
H  -4.60761425203824614982 4.89722384655356535177 1.97164146043297416888
H  -5.78536565115762613232 3.72040463244509922447 2.59925082304283128209
H  -5.49924350684552365465 3.84871338940217633251 0.84668743254449219116
H  -2.36433438850898847150 2.27723135049781921779 3.03779214665444730059
H  -3.92239128683128690511 2.24571505393759585090 3.89947641569021374863
H  -3.12537419385915971048 3.79691681296295957537 3.55939247525990243304
H  -1.22380054817876371409 -2.27318552200003942687 -2.45414476804485381933
H  -4.34930828395222057736 -0.30457263051519722907 -0.31145257725810138183
H  -3.62989279386764085444 -1.95767523635429729900 -1.99327083637831870000
H  1.06431974863961165134 -1.73635287427979290165 -2.04624137862877919503
H  2.79833402781707807350 -0.42450711308642508079 -0.88217395703278933539
H  0.22830339954147160775 3.16611008838605467730 2.94554841436224279505
H  2.67438285563647237808 2.94412282769538169447 2.49132636400693474599
H  3.40303355198354218203 1.28647478235062240337 0.76663522172690401479
*
