! B3LYP/G OPT FREQ 6-311G* CPCM(Water)

%tddft
    NRoots 3
    IRoot 1
end 

* xyz 0 1 
C  -3.17282181933942108998 -0.72298139733973276755 -0.32705670606900416608
C  -2.69037638358254760362 -1.67367874990712595107 -1.22467455858177398653
C  -1.34735141127269275607 -1.74600343523878809293 -1.48703196670889714603
C  -2.30780102521713503805 0.14685678327596130011 0.29958985238513841098
C  -0.91860163270237682465 0.10012033921434504435 0.05326769541519826845
O  -2.80039310143607611536 1.05878175090601933661 1.21920598733154550430
C  -0.44509367410599454118 -0.86986927991730755849 -0.86312582939748905275
C  0.94688197401696094779 -0.94341280380425196483 -1.16145485822880267790
C  1.83405798609766823581 -0.09389034428455511616 -0.59729757898922675174
C  0.02849865832756992567 0.99296441552410574793 0.67271019178450319753
C  1.40035513193031957435 0.89460628695993760218 0.32835468479161300515
N  -0.40232631059562518061 1.90019779702223812201 1.56183352542628917092
C  0.45915793776724656006 2.72279355563820546493 2.10880894869473412001
C  1.82782359688693962774 2.71920906218230218343 1.82696110231723962691
C  2.29754990188751762048 1.79098907010168550968 0.93104686198945862952
C  -3.71386291688628755736 1.97194188603786857428 0.80566054525648012063
O  -4.13680213907804716911 2.02641208397079175541 -0.34213943517507483527
N  -4.07689890960657219665 2.79871045485984915047 1.78898024838363145506
C  -3.51861813671623657740 2.73299422200073305333 3.12245076034527180298
C  -5.10457544432298870873 3.79101490101103077990 1.56652654065346630397
H  -5.46796717050829705897 3.69490448443293661995 0.54563964015537902430
H  -4.69513431505454992276 4.79094374462168115514 1.71226296438636715891
H  -5.92683044949372117571 3.63094013819908756346 2.26441986551258267468
H  -2.53816130748590929045 2.26630852217879752430 3.08025999080462220547
H  -4.16926540431060299596 2.15719996026347082818 3.78314470122325285928
H  -3.42473209310730464239 3.74712816199290710273 3.50572304517920141365
H  -0.96347025233273320133 -2.47522388215560251723 -2.18335154945832865536
H  -4.22986503383935552591 -0.65048616249954305246 -0.12087398937756421713
H  -3.38428203379895142788 -2.34490187032552732660 -1.70496454704522881762
H  1.27123103010974802807 -1.69778422962584274458 -1.86165447583588261615
H  2.88678971009763785105 -0.14486164751454055910 -0.83174302072788419693
H  0.03944264191478930037 3.42710054755877946420 2.81485095323771083997
H  2.48495191699559292431 3.42484642714072107239 2.30864536688975352519
H  3.34665047550221306238 1.73395920937777359150 0.67940504304258519941
*
