! B3LYP/G VERYTIGHTOPT FREQ Def2-TZVP(-f) TightSCF CPCM(Water)
%tddft
    NRoots 3
    IRoot 1
end 

* xyz 1 1 
  C          -4.79420694476123      0.32457264471294      0.45253131088809
  C          -5.40035858134128     -0.52945715555899      1.36872220203200
  C          -4.61580576671319     -1.11387907501961      2.33607466472850
  C          -3.42491624764933      0.63375519524961      0.54008962759914
  C          -2.63123785513836      0.20129415154115      1.62506107525933
  O          -2.94889706292037      1.34508884467599     -0.51265397420962
  C          -3.22470609984837     -0.78906621525749      2.46094912391972
  C          -2.43539840728926     -1.47663901569636      3.39702039695700
  C          -1.08323754718344     -1.22342628277849      3.47717987135812
  C          -1.29079198186563      0.61165276141407      1.90630085022838
  C          -0.48014968856850     -0.17489059301156      2.73029918914535
  N          -0.73390049786782      1.79946098363590      1.35103014474799
  C           0.66279829812877      1.83746416658680      1.21940120162765
  C           1.47491758006732      0.98382322945827      1.91591554449395
  C           0.92562117154074      0.03822770532118      2.77791438486192
  C          -1.89364900765188      0.84212547479173     -1.29219013279362
  O          -1.33866091989566     -0.20016151629819     -1.02190119690199
  N          -1.64180787402662      1.65351218775322     -2.32885000536847
  C          -2.45150202155794      2.80795519833838     -2.71063135325628
  C          -0.62427465799344      1.24625001383695     -3.29363711645106
  H          -1.09422941711889      0.81743690335731     -4.18235790554419
  H           0.03570293045761      0.51169675720234     -2.84496563160375
  H          -0.05165357670342      2.12500359198530     -3.58830971135861
  H          -1.78779770395480      3.64787754252288     -2.91501382152261
  H          -3.13669836347259      3.08174487029144     -1.91927650966347
  H          -3.01251467548820      2.57662321670135     -3.61913279446867
  H          -5.03319591214908     -1.82980675828789      3.03167114051789
  H          -5.34698886724289      0.73524279554568     -0.38149590722584
  H          -6.45283310965282     -0.75979057879607      1.28809834897596
  H          -2.88848571498686     -2.23819996262463      4.01742822297844
  H          -0.45875882401991     -1.81149287044037      4.13754416259928
  H           1.04810828256920      2.62466863245805      0.59008554224782
  H           2.54561589831688      1.08043371321243      1.79974668063730
  H           1.54046041947630     -0.57300100586028      3.42146654834765
  P          -1.49925594165634      3.33200601402942      1.59770060255619
  O          -2.93310832301009      3.19793096513792      1.89355103561490
  O          -1.04768283352997      4.04206615515814      0.26910126589558
  O          -0.65232771464024      4.08966710708609      2.69995540590949
  C          -1.22256590737109      5.48792455654051      0.06813378727543
  C          -1.06606513561721      4.19457545575517      4.10310605094475
  C          -0.19016944287035      5.95698562441581     -0.92706289170746
  H          -1.10757191671453      5.99019302694293      1.02756073792298
  H          -2.23765812213082      5.63668105823207     -0.29700645110388
  H           0.81943749602992      5.79969200057830     -0.54598399903792
  H          -0.32991943789526      7.02513577548408     -1.10361756807041
  H          -0.29652955112453      5.43509556314527     -1.87844900116785
  C          -0.14406685263767      3.38700117105129      4.98603426788228
  H          -2.10123726067602      3.86936173387244      4.18682682725795
  H          -1.01075066337844      5.25742261028234      4.33187678905785
  H           0.89100648289557      3.71068140652761      4.87024010134281
  H          -0.20960976060889      2.32255925022693      4.75839012696700
  H          -0.43480237999079      3.53398099062609      6.02837873357443
*

