42
Coordinates from ORCA-job NMU-1 E -1032.695280306525
  C          -6.55424753028532     -1.48365647545132     -0.13917268719771
  C          -6.52745998618481     -2.58692056112484     -1.18076275853966
  C          -5.56094741654387     -3.67492349484412     -0.73517242275783
  H          -6.21285045551578     -2.17036535822243     -2.14113142803338
  H          -7.53523412361164     -2.98462315711474     -1.30281262327402
  C          -4.21683851765433     -3.09115974922837     -0.39501007011219
  H          -5.44305092824267     -4.43828705839383     -1.50552726329038
  H          -5.97069304418475     -4.17848359366327      0.14794515642556
  C          -4.11093542785661     -1.73179916299436      0.03083569983913
  N          -5.22411436005647     -0.94274927212550      0.10671004248512
  H          -6.96433414924932     -1.86997942254354      0.80607264373716
  H          -7.18860250651226     -0.65552564211461     -0.45372357733988
  C          -5.16468725362127      0.38555486213729      0.69966506267941
  C          -3.86298200486007      1.08294894928027      0.35312179911245
  H          -5.26698792001797      0.29796341087411      1.79184946361013
  H          -6.02419710002214      0.94557566338594      0.33449188960233
  C          -2.68639522331674      0.23663764387441      0.81687701901167
  H          -3.84275188148404      2.06318023333316      0.82975947784651
  H          -3.81536504130829      1.23543108930074     -0.72791560306096
  C          -2.83536230412109     -1.19148874012091      0.37299722179522
  H          -2.62074302403237      0.26500758412728      1.91070359597421
  H          -1.74612748209409      0.64040183545043      0.44319563196800
  C          -3.07716586074597     -3.85539412384254     -0.48076391253545
  C          -1.73262126536373     -2.02158205438368      0.29186904011114
  C          -1.79984895105679     -3.35699609796509     -0.13917528611355
  O          -0.52777676425599     -1.47458078162091      0.65747305005286
  C           0.67522666976043     -2.17616575763334      0.58753245591862
  C          -0.60655737223808     -4.11993361770919     -0.20352552473339
  C           0.63567107406674     -3.55282208089095      0.14656848675604
  O           1.65569384421029     -1.51273755612110      0.89973127567702
  C           1.86251939796639     -4.31018519344870      0.04652640308151
  C           3.06443495442833     -3.99197593396019      0.71977129326540
  C           1.90509624121463     -5.48521045691403     -0.75302359333866
  N           2.97100337177249     -6.26284479679922     -0.90029733532704
  C           4.09098513878783     -5.93237919637194     -0.24266227794508
  C           4.16997183234466     -4.80445845451294      0.57361663070495
  H           1.03282821806493     -5.77745983731168     -1.32390287717123
  H           5.09117841528569     -4.57726985886761      1.09463504549003
  H           4.94456811608523     -6.58828828890664     -0.37133648141642
  H           3.10730400680725     -3.12433035250944      1.35694391554523
  H          -3.15554517582242     -4.88274518868526     -0.81611795225659
  H          -0.68073821053592     -5.16072995536727     -0.47639862624627
