
                                 *****************
                                 * O   R   C   A *
                                 *****************

                                            #,                                       
                                            ###                                      
                                            ####                                     
                                            #####                                    
                                            ######                                   
                                           ########,                                 
                                     ,,################,,,,,                         
                               ,,#################################,,                 
                          ,,##########################################,,             
                       ,#########################################, ''#####,          
                    ,#############################################,,   '####,        
                  ,##################################################,,,,####,       
                ,###########''''           ''''###############################       
              ,#####''   ,,,,##########,,,,          '''####'''          '####       
            ,##' ,,,,###########################,,,                        '##       
           ' ,,###''''                  '''############,,,                           
         ,,##''                                '''############,,,,        ,,,,,,###''
      ,#''                                            '''#######################'''  
     '                                                          ''''####''''         
             ,#######,   #######,   ,#######,      ##                                
            ,#'     '#,  ##    ##  ,#'     '#,    #''#        ,####,   ,####,        
            ##       ##  ##   ,#'  ##            #'  '#       #'       #'  '#        
            ##       ##  #######   ##           ,######,      #####,   #    #        
            '#,     ,#'  ##    ##  '#,     ,#' ,#      #,     #,   #   #,  ,#        
             '#######'   ##     ##  '#######'  #'      '#     '####' # '####'        



                #########################################################
                #                        -***-                          #
                #          Department of theory and spectroscopy        #
                #                                                       #
                #                      Frank Neese                      #
                #                                                       #
                #     Directorship, Architecture, Infrastructure        #
                #                    SHARK, DRIVERS                     #
                #        Core code/Algorithms in most modules           #
                #                                                       #
                #        Max Planck Institute fuer Kohlenforschung      #
                #                Kaiser Wilhelm Platz 1                 #
                #                 D-45470 Muelheim/Ruhr                 #
                #                      Germany                          #
                #                                                       #
                #                  All rights reserved                  #
                #                        -***-                          #
                #########################################################


                         Program Version 6.0.1  -  RELEASE   -


 With contributions from (in alphabetic order):
[Max-Planck-Institut fuer Kohlenforschung]                               
  Daniel Aravena         : Magnetic Suceptibility                        
  Michael Atanasov       : Ab Initio Ligand Field Theory (pilot matlab implementation)
  Alexander A. Auer      : GIAO ZORA, VPT2 properties, NMR spectrum      
  Ute Becker             : All parallelization in ORCA, NUMFREQ, NUMCALC 
  Giovanni Bistoni       : ED, misc. LED, open-shell LED, HFLD           
  Martin Brehm           : Molecular dynamics                            
  Dmytro Bykov           : pre 5.0 version of the SCF Hessian            
  Marcos Casanova-Páez   : Triplet and SCS-CIS(D). UHF-(DLPNO)-IP/EA/STEOM-CCSD. UHF-CVS-IP/STEOM-CCSD   
  Vijay G. Chilkuri      : MRCI spin determinant printing, contributions to CSF-ICE 
  Pauline Colinet        : FMM embedding                                 
  Dipayan Datta          : RHF DLPNO-CCSD density                        
  Achintya Kumar Dutta   : EOM-CC, STEOM-CC                              
  Nicolas Foglia         : Exact transition moments, OPA infrastructure, MCD improvements    
  Dmitry Ganyushin       : Spin-Orbit,Spin-Spin,Magnetic field MRCI      
  Miquel Garcia-Rates    : C-PCM and meta-GGA Hessian, CCSD/C-PCM, Gaussian charge scheme 
  Tiago L. C. Gouveia    : GS-ROHF, GS-ROCIS                             
  Yang Guo               : DLPNO-NEVPT2, F12-NEVPT2, CIM, IAO-localization        
  Andreas Hansen         : Spin unrestricted coupled pair/coupled cluster methods 
  Ingolf Harden          : AUTO-CI MPn and infrastructure                
  Benjamin Helmich-Paris : MC-RPA, TRAH-(SCF,CASSCF), AVAS, COSX integrals, SCF dyn. polar. 
  Lee Huntington         : MR-EOM, pCC                                   
  Robert Izsak           : Overlap fitted RIJCOSX, COSX-SCS-MP3, EOM     
  Riya Kayal             : Wick's Theorem for AUTO-CI, AUTO-CI UHF-CCSDT 
  Emily Kempfer          : AUTO-CI, RHF CISDT and CCSDT                  
  Christian Kollmar      : KDIIS, OOCD, Brueckner-CCSD(T), CCSD density, CASPT2, CASPT2-K, improved NEVPT2 
  Axel Koslowski         : Symmetry handling                             
  Simone Kossmann        : meta-GGA functionals, TD-DFT gradient, OOMP2, (MP2 Hessian; deprecated post 5.0) 
  Lucas Lang             : DCDCAS                                        
  Marvin Lechner         : AUTO-CI (C++ implementation), FIC-MRCC        
  Spencer Leger          : CASSCF response                               
  Dagmar Lenk            : GEPOL surface, SMD, ORCA-2-JSON               
  Dimitrios Liakos       : Extrapolation schemes; Compound Job, initial MDCI parallelization 
  Dimitrios Manganas     : Further ROCIS development; embedding schemes. LFT, Crystal Embedding 
  Dimitrios Pantazis     : SARC Basis sets                               
  Anastasios Papadopoulos: AUTO-CI, single reference methods and gradients 
  Taras Petrenko         : pre 6.0 DFT Hessian and TD-DFT gradient, (ASA, deprecated), ECA, 1-Electron XAS/XES, NRVS 
  Peter Pinski           : DLPNO-MP2, DLPNO-MP2 Gradient                 
  Christoph Reimann      : Effective Core Potentials                     
  Marius Retegan         : Local ZFS, SOC                                
  Christoph Riplinger    : Optimizer, TS searches, QM/MM, DLPNO-CCSD(T), (RO)-DLPNO pert. Triples 
  Michael Roemelt        : Original ROCIS implementation                 
  Masaaki Saitow         : Open-shell DLPNO-CCSD energy and density      
  Barbara Sandhoefer     : DKH picture change effects                    
  Kantharuban Sivalingam : CASSCF convergence/infrastructure, NEVPT2 and variants, FIC-MRCI 
  Bernardo de Souza      : ESD, SOC TD-DFT                               
  Georgi L. Stoychev     : AutoAux, RI-MP2 NMR, DLPNO-MP2 response, X2C  
  Van Anh Tran           : RI-MP2 g-tensors                              
  Willem Van den Heuvel  : Paramagnetic NMR                              
  Zikuan Wang            : NOTCH, Electric field optimization            
  Frank Wennmohs         : Technical directorship and infrastructure     
  Hang Xu                : AUTO-CI-Response properties                   
                                                                         
[FACCTs GmbH]                                                            
  Markus Bursch, Miquel Garcia-Rates, Christoph Riplinger, Bernardo de Souza, Georgi L. Stoychev 
                                                                 
  APM, Basis sets (HGBS, AHGBS, def-TZVP (Ac-Lr), def2-XVPD (La-Lu)), CI-OPT, improved COSX, DLPNO-Multilevel,           
  DOCKER, DRACO, updates on ESD, GOAT, IRC, LR-CPCM, MBIS, meta-GGA TD-DFT gradient, ML-optimized integration grids, 
  MM, NACMEs, nearIR, NEB, NEB-TS, NL-DFT gradient (VV10), 2- and 3-layer-ONIOM, interface openCOSMO-RS, QMMM,   
  Crystal-QMMM, SF, symmetry and pop. for TD-DFT, r2SCAN hybrids, SOLVATOR                                   
                                                                         
[Other institutions]                                                     
  V. Asgeirsson          : NEB                                           
  Christoph Bannwarth    : sTDA-DFT, sTD-DFT, PBEh-3c, B97-3c, D3        
  Sebastian Ehlert       : rSCAN, r2SCAN, r2SCAN-3c, D4, dhf basis sets  
  Marvin Friede          : D4 for Fr, Ra, Ac-Lr                          
  Lars Goerigk           : TD-DFT with DH, B97 family of functionals     
  Stefan Grimme          : VdW corrections, initial TS optimization, DFT functionals, gCP, sTDA/sTD-DF 
  Waldemar Hujo          : DFT-NL                                        
  H. Jonsson             : NEB                                           
  Holger Kruse           : gCP                                           
  Marcel Mueller         : wB97X-3c, vDZP basis set                      
  Hagen Neugebauer       : wr2SCAN                                       
  Tobias Risthaus        : range-separated hybrid DFT                    
  Lukas Wittmann         : regularized MP2, r2SCAN double-hybrids, wr2SCAN        
                                                                         
We gratefully acknowledge several colleagues who have allowed us to      
interface, adapt or use parts of their codes:                            
  Ed Valeev, F. Pavosevic, A. Kumar             : LibInt (2-el integral package), F12 methods 
  Garnet Chan, S. Sharma, J. Yang, R. Olivares  : DMRG                   
  Ulf Ekstrom                                   : XCFun DFT Library      
  Mihaly Kallay                                 : mrcc  (arbitrary order and MRCC methods)
  Frank Weinhold                                : gennbo (NPA and NBO analysis)           
  Simon Mueller                                 : openCOSMO-RS                            
  Christopher J. Cramer and Donald G. Truhlar   : smd solvation model                     
  S Lehtola, MJT Oliveira, MAL Marques          : LibXC Library                           
  Liviu Ungur et al                             : ANISO software                          


 Your calculation uses the libint2 library for the computation of 2-el integrals
 For citations please refer to: http://libint.valeyev.net

 Your ORCA version has been built with support for libXC version: 6.2.2
 For citations please refer to: https://libxc.gitlab.io

 This ORCA versions uses:
   CBLAS   interface :  Fast vector & matrix operations
   LAPACKE interface :  Fast linear algebra routines
   SCALAPACK package :  Parallel linear algebra routines
   Shared memory     :  Shared parallel matrices
   BLAS/LAPACK       :  OpenBLAS 0.3.27  USE64BITINT DYNAMIC_ARCH NO_AFFINITY Cooperlake SINGLE_THREADED
        Core in use  :  Cooperlake
   Copyright (c) 2011-2014, The OpenBLAS Project


Your calculation utilizes the atom-pairwise dispersion correction
with the Becke-Johnson damping scheme (D3BJ)


================================================================================

----- Orbital basis set information -----
Your calculation utilizes the basis: def2-TZVP(-f)
   F. Weigend and R. Ahlrichs, Phys. Chem. Chem. Phys. 7, 3297 (2005).

----- AuxJ basis set information -----
Your calculation utilizes the auxiliary basis: def2/J
   F. Weigend, Phys. Chem. Chem. Phys. 8, 1057 (2006).

----- AuxC basis set information -----
Your calculation utilizes the auxiliary basis: def2-TZVP/C
  H-La, Hf-Rn : A. Hellweg, C. Hattig, S. Hofener and W. Klopper, Theor. Chem. Acc. 117, 587 (2007).
        Ce-Lu : J. Chmela and M. E. Harding, Mol. Phys. (2018).

================================================================================
                                        WARNINGS
                       Please study these warnings very carefully!
================================================================================

INFO   : Checking CIS options ...

WARNING: (CIS/TDDFT): Analytic excited state gradients requested
  ===> : turning on equilibrium dielectric conditions.

WARNING: Analytical Frequencies for this method not available!
  ===> : Switching to Numerical Frequencies!

WARNING: Geometry Optimization
  ===> : Switching off AutoStart
         For restart on a previous wavefunction, please use MOREAD

WARNING: CIS/ROCIS methods need fully converged wavefunctions
  ===> : Setting SCFConvForced true
         You can overwrite this default with %scf ConvForced false 


================================================================================
                                       INPUT FILE
================================================================================
NAME = NMU-1.inp
|  1> ! B3LYP D3 OPT FREQ Def2-TZVP(-f) Def2-TZVP/C Def2/J RIJCOSX CPCM(Water)
|  2> %tddft
|  3>     NRoots 1
|  4>     IRoot 1
|  5> end
|  6> 
|  7> * xyz 0 1
|  8>   C   -6.56158123625696     -1.48119619033453     -0.14330629272972
|  9>   C   -6.53799054812605     -2.59280445360835     -1.17814081077231
| 10>   C   -5.56488928199190     -3.67780870280229     -0.73465077018323
| 11>   H   -6.23591109125885     -2.18302965453777     -2.14550550008738
| 12>   H   -7.54591465009978     -2.99425998208802     -1.28865320266025
| 13>   C   -4.21950617567578     -3.09144431684412     -0.39293759754157
| 14>   H   -5.44609278599897     -4.43922050041694     -1.50718462150461
| 15>   H   -5.97276392180609     -4.18716633877340      0.14627222217038
| 16>   C   -4.11421284322847     -1.72973008399726      0.03305364593231
| 17>   N   -5.22926790007395     -0.93875651119412      0.10322618639046
| 18>   H   -6.97582759571070     -1.85909707691845      0.80372879071618
| 19>   H   -7.19497246765664     -0.65459882831025     -0.46472890731671
| 20>   C   -5.17302039128788      0.39683454240174      0.68641402378405
| 21>   C   -3.86424197170252      1.09157074253155      0.35622949429498
| 22>   H   -5.29477399096886      0.31998810811496      1.77761239828010
| 23>   H   -6.02521649935718      0.95714410801838      0.30379979168223
| 24>   C   -2.69118605551432      0.24119756794506      0.82673771872227
| 25>   H   -3.84707719970196      2.06889146588906      0.83951670787675
| 26>   H   -3.80483930787859      1.25443960938839     -0.72279464377081
| 27>   C   -2.83670655647521     -1.18889878853875      0.37899319423064
| 28>   H   -2.63199178903666      0.26946801695638      1.92120656210156
| 29>   H   -1.74855602606259      0.64710384736915      0.46078933894439
| 30>   C   -3.07793399687407     -3.85567218319136     -0.47759232831121
| 31>   C   -1.73244473680217     -2.02093831690175      0.29773004252760
| 32>   C   -1.79918167421237     -3.35722130602123     -0.13536769115483
| 33>   O   -0.52502259161304     -1.47721495724992      0.66469131957331
| 34>   C   0.67956576932772     -2.18008413214011      0.59720060563461
| 35>   C   -0.60339054465163     -4.12012552135440     -0.20256405573909
| 36>   C   0.64185743784514     -3.55646471395371      0.14949583485797
| 37>   O   1.65786795095007     -1.51755268308299      0.91736984805608
| 38>   C   1.87119041238023     -4.31566087316578      0.04645579834235
| 39>   C   3.07752358497213     -3.99763678863633      0.71543170181726
| 40>   C   1.91451881493511     -5.49237077036442     -0.75338437725169
| 41>   N   2.98126480789342     -6.26912781254528     -0.90338731548739
| 42>   C   4.10337027210935     -5.93869112264697     -0.24907547601803
| 43>   C   4.18372543486746     -4.80979531304105      0.56605787767279
| 44>   H   1.04216767336901     -5.78782266467474     -1.32287677582417
| 45>   H   5.10626676166292     -4.58071303618696      1.08424637250749
| 46>   H   4.95672155379938     -6.59460550868661     -0.38023227140347
| 47>   H   3.12477351335729     -3.12975955208128      1.35244857311052
| 48>   H   -3.15601423671858     -4.88321893258259     -0.81353134367906
| 49>   H   -0.67896592072739     -5.15930039174288     -0.48233406779075
| 50> *
| 51> 
| 52> 
| 53>                          ****END OF INPUT****
================================================================================

                       *****************************
                       * Geometry Optimization Run *
                       *****************************

Geometry optimization settings:
Update method            Update   .... BFGS
Choice of coordinates    CoordSys .... (2022) Redundant Internals
Initial Hessian          InHess   .... Almloef's Model
Max. no of cycles        MaxIter  .... 126

Convergence Tolerances:
Energy Change            TolE     ....  5.0000e-06 Eh
Max. Gradient            TolMAXG  ....  3.0000e-04 Eh/bohr
RMS Gradient             TolRMSG  ....  1.0000e-04 Eh/bohr
Max. Displacement        TolMAXD  ....  4.0000e-03 bohr
RMS Displacement         TolRMSD  ....  2.0000e-03 bohr
Strict Convergence                .... False

------------------------------------------------------------------------------
                        ORCA OPTIMIZATION COORDINATE SETUP
------------------------------------------------------------------------------

The optimization will be done in redundant internal coordinates (2022)
Making redundant internal coordinates   ...  (2022 redundants) done
Evaluating the initial hessian          ...  (Almloef) done
Evaluating the coordinates              ...  done
Calculating the B-matrix                .... done
Calculating the G-matrix                .... done
Diagonalizing the G-matrix              .... done
Small eigenvalue found = 4.778e-03
Small eigenvalue found = 1.575e-02
Small eigenvalue found = 2.593e-02
The first mode is                       ....  121
The number of degrees of freedom        ....  120

    -----------------------------------------------------------------
                    Redundant Internal Coordinates


    -----------------------------------------------------------------
         Definition                    Initial Value    Approx d2E/dq
    -----------------------------------------------------------------
      1. B(C   1,C   0)                  1.5189         0.389097   
      2. B(C   2,C   1)                  1.5234         0.382699   
      3. B(H   3,C   1)                  1.0931         0.355966   
      4. B(H   4,C   1)                  1.0905         0.359378   
      5. B(C   5,C   2)                  1.5069         0.406711   
      6. B(H   6,C   2)                  1.0912         0.358545   
      7. B(H   7,C   2)                  1.0963         0.351886   
      8. B(C   8,C   5)                  1.4307         0.538084   
      9. B(N   9,C   8)                  1.3689         0.604679   
     10. B(N   9,C   0)                  1.4595         0.433538   
     11. B(H  10,C   0)                  1.1006         0.346368   
     12. B(H  11,C   0)                  1.0898         0.360306   
     13. B(C  12,N   9)                  1.4584         0.435180   
     14. B(C  13,C  12)                  1.5181         0.390290   
     15. B(H  14,C  12)                  1.1007         0.346276   
     16. B(H  15,C  12)                  1.0893         0.361025   
     17. B(C  16,C  13)                  1.5233         0.382824   
     18. B(H  17,C  13)                  1.0904         0.359544   
     19. B(H  18,C  13)                  1.0929         0.356333   
     20. B(C  19,C  16)                  1.5056         0.408609   
     21. B(C  19,C   8)                  1.4298         0.539901   
     22. B(H  20,C  16)                  1.0964         0.351690   
     23. B(H  21,C  16)                  1.0896         0.360629   
     24. B(C  22,C   5)                  1.3764         0.656875   
     25. B(C  23,C  19)                  1.3850         0.636326   
     26. B(C  24,C  23)                  1.4063         0.588482   
     27. B(C  24,C  22)                  1.4145         0.571042   
     28. B(O  25,C  23)                  1.3741         0.593247   
     29. B(C  26,O  25)                  1.3963         0.546824   
     30. B(C  27,C  24)                  1.4200         0.559558   
     31. B(C  28,C  26)                  1.4479         0.505166   
     32. B(C  28,C  27)                  1.4115         0.577369   
     33. B(O  29,C  26)                  1.2241         1.029168   
     34. B(C  30,C  28)                  1.4485         0.503905   
     35. B(C  31,C  30)                  1.4156         0.568727   
     36. B(C  32,C  30)                  1.4235         0.552508   
     37. B(N  33,C  32)                  1.3281         0.702527   
     38. B(C  34,N  33)                  1.3403         0.671663   
     39. B(C  35,C  34)                  1.3947         0.614007   
     40. B(C  35,C  31)                  1.3804         0.647145   
     41. B(H  36,C  32)                  1.0829         0.369655   
     42. B(H  37,C  35)                  1.0826         0.369987   
     43. B(H  38,C  34)                  1.0843         0.367765   
     44. B(H  39,C  31)                  1.0776         0.376875   
     45. B(H  40,C  22)                  1.0839         0.368283   
     46. B(H  41,C  27)                  1.0788         0.375188   
     47. A(C   1,C   0,H  10)          109.9258         0.324416   
     48. A(C   1,C   0,N   9)          111.8950         0.373023   
     49. A(N   9,C   0,H  11)          107.3653         0.330411   
     50. A(H  10,C   0,H  11)          107.1849         0.289097   
     51. A(C   1,C   0,H  11)          111.2946         0.326528   
     52. A(N   9,C   0,H  10)          109.0176         0.328265   
     53. A(C   2,C   1,H   3)          110.3700         0.324990   
     54. A(C   0,C   1,H   3)          109.4425         0.325877   
     55. A(C   2,C   1,H   4)          110.9579         0.325500   
     56. A(H   3,C   1,H   4)          107.6813         0.290221   
     57. A(C   0,C   1,H   4)          108.9107         0.326389   
     58. A(C   0,C   1,C   2)          109.4396         0.367408   
     59. A(C   5,C   2,H   7)          109.3147         0.327639   
     60. A(C   1,C   2,C   5)          111.0497         0.370211   
     61. A(C   5,C   2,H   6)          109.5650         0.328654   
     62. A(C   1,C   2,H   7)          109.0979         0.324375   
     63. A(C   1,C   2,H   6)          111.1255         0.325376   
     64. A(H   6,C   2,H   7)          106.5708         0.289591   
     65. A(C   2,C   5,C   8)          120.2388         0.392759   
     66. A(C   2,C   5,C  22)          120.6980         0.406788   
     67. A(C   8,C   5,C  22)          119.0621         0.427573   
     68. A(C   5,C   8,N   9)          120.3498         0.418553   
     69. A(N   9,C   8,C  19)          119.7917         0.418805   
     70. A(C   5,C   8,C  19)          119.8573         0.412873   
     71. A(C   0,N   9,C   8)          121.3438         0.400244   
     72. A(C   8,N   9,C  12)          121.2131         0.400510   
     73. A(C   0,N   9,C  12)          116.3024         0.377913   
     74. A(H  14,C  12,H  15)          107.3136         0.289175   
     75. A(C  13,C  12,H  15)          111.2644         0.326800   
     76. A(N   9,C  12,H  15)          107.4828         0.330727   
     77. A(C  13,C  12,H  14)          110.0568         0.324565   
     78. A(N   9,C  12,H  14)          109.1613         0.328455   
     79. A(N   9,C  12,C  13)          111.4301         0.373463   
     80. A(C  12,C  13,H  17)          109.1077         0.326579   
     81. A(C  12,C  13,C  16)          109.9522         0.367621   
     82. A(H  17,C  13,H  18)          107.6482         0.290289   
     83. A(C  16,C  13,H  18)          110.2606         0.325063   
     84. A(C  12,C  13,H  18)          109.2572         0.326097   
     85. A(C  16,C  13,H  17)          110.5677         0.325542   
     86. A(H  20,C  16,H  21)          106.1971         0.289829   
     87. A(C  19,C  16,H  21)          109.7297         0.329222   
     88. A(C  13,C  16,H  21)          110.7625         0.325704   
     89. A(C  19,C  16,H  20)          109.0603         0.327861   
     90. A(C  13,C  16,C  19)          111.3432         0.370529   
     91. A(C  13,C  16,H  20)          109.6025         0.324363   
     92. A(C  16,C  19,C  23)          120.7307         0.404843   
     93. A(C   8,C  19,C  23)          118.0960         0.425403   
     94. A(C   8,C  19,C  16)          121.1724         0.393312   
     95. A(C   5,C  22,C  24)          122.6341         0.432159   
     96. A(C  24,C  22,H  40)          118.3063         0.349362   
     97. A(C   5,C  22,H  40)          119.0585         0.357746   
     98. A(C  24,C  23,O  25)          119.9958         0.423849   
     99. A(C  19,C  23,O  25)          116.5640         0.429826   
    100. A(C  19,C  23,C  24)          123.4401         0.432027   
    101. A(C  23,C  24,C  27)          119.0198         0.422189   
    102. A(C  22,C  24,C  27)          124.0915         0.419928   
    103. A(C  22,C  24,C  23)          116.8886         0.423725   
    104. A(C  23,O  25,C  26)          123.0907         0.415621   
    105. A(C  28,C  26,O  29)          128.0385         0.455433   
    106. A(O  25,C  26,O  29)          113.8516         0.458995   
    107. A(O  25,C  26,C  28)          118.1001         0.406566   
    108. A(C  24,C  27,C  28)          121.1024         0.420755   
    109. A(C  28,C  27,H  41)          120.7402         0.351112   
    110. A(C  24,C  27,H  41)          118.0851         0.349259   
    111. A(C  27,C  28,C  30)          121.4449         0.412981   
    112. A(C  26,C  28,C  30)          119.8765         0.403331   
    113. A(C  26,C  28,C  27)          118.6676         0.413164   
    114. A(C  31,C  30,C  32)          115.1704         0.418677   
    115. A(C  28,C  30,C  32)          119.9378         0.409770   
    116. A(C  28,C  30,C  31)          124.8797         0.411877   
    117. A(C  35,C  31,H  39)          120.1762         0.358241   
    118. A(C  30,C  31,H  39)          119.8452         0.350484   
    119. A(C  30,C  31,C  35)          119.9718         0.430688   
    120. A(N  33,C  32,H  36)          115.3466         0.359847   
    121. A(C  30,C  32,H  36)          119.7706         0.347642   
    122. A(C  30,C  32,N  33)          124.8477         0.431980   
    123. A(C  32,N  33,C  34)          118.2374         0.444530   
    124. A(C  35,C  34,H  38)          120.9965         0.353588   
    125. A(N  33,C  34,H  38)          116.7892         0.356796   
    126. A(N  33,C  34,C  35)          122.2143         0.436717   
    127. A(C  34,C  35,H  37)          120.0062         0.353949   
    128. A(C  31,C  35,H  37)          120.4355         0.357120   
    129. A(C  31,C  35,C  34)          119.5556         0.436664   
    130. D(C   2,C   1,C   0,N   9)     55.8103         0.012039   
    131. D(C   2,C   1,C   0,H  10)    -65.4711         0.012039   
    132. D(C   2,C   1,C   0,H  11)    175.9352         0.012039   
    133. D(H   3,C   1,C   0,N   9)    -65.2558         0.012039   
    134. D(H   3,C   1,C   0,H  11)     54.8690         0.012039   
    135. D(H   3,C   1,C   0,H  10)    173.4627         0.012039   
    136. D(C   5,C   2,C   1,C   0)    -51.7411         0.011664   
    137. D(H   6,C   2,C   1,C   0)   -173.9749         0.011664   
    138. D(H   6,C   2,C   1,H   4)     65.8122         0.011664   
    139. D(H   6,C   2,C   1,H   3)    -53.4726         0.011664   
    140. D(C   5,C   2,C   1,H   3)     68.7612         0.011664   
    141. D(C   5,C   2,C   1,H   4)   -171.9540         0.011664   
    142. D(C   8,C   5,C   2,C   1)     25.9362         0.012259   
    143. D(C   8,C   5,C   2,H   6)    149.0718         0.012259   
    144. D(C  22,C   5,C   2,C   1)   -154.4431         0.012259   
    145. D(C   8,C   5,C   2,H   7)    -94.4865         0.012259   
    146. D(C  22,C   5,C   2,H   6)    -31.3075         0.012259   
    147. D(C  19,C   8,C   5,C  22)     -0.7823         0.019779   
    148. D(C  19,C   8,C   5,C   2)    178.8446         0.019779   
    149. D(N   9,C   8,C   5,C  22)    178.8023         0.019779   
    150. D(N   9,C   8,C   5,C   2)     -1.5708         0.019779   
    151. D(C  12,N   9,C   8,C  19)     -7.9441         0.029496   
    152. D(C  12,N   9,C   8,C   5)    172.4710         0.029496   
    153. D(C   0,N   9,C   8,C  19)   -175.2838         0.029496   
    154. D(C   0,N   9,C   8,C   5)      5.1313         0.029496   
    155. D(C  12,N   9,C   0,H  10)    -79.1516         0.016025   
    156. D(C  12,N   9,C   0,C   1)    159.0438         0.016025   
    157. D(C   8,N   9,C   0,H  11)   -155.4213         0.016025   
    158. D(C   8,N   9,C   0,H  10)     88.7792         0.016025   
    159. D(C   8,N   9,C   0,C   1)    -33.0254         0.016025   
    160. D(C  13,C  12,N   9,C   0)   -155.3525         0.016147   
    161. D(H  15,C  12,N   9,C   0)    -33.2048         0.016147   
    162. D(H  14,C  12,N   9,C   8)    -85.0640         0.016147   
    163. D(H  14,C  12,N   9,C   0)     82.8837         0.016147   
    164. D(C  13,C  12,N   9,C   8)     36.6997         0.016147   
    165. D(H  17,C  13,C  12,H  15)     62.1217         0.012109   
    166. D(H  17,C  13,C  12,H  14)    -56.6972         0.012109   
    167. D(H  17,C  13,C  12,N   9)   -177.9404         0.012109   
    168. D(C  16,C  13,C  12,H  15)   -176.4586         0.012109   
    169. D(C  16,C  13,C  12,H  14)     64.7225         0.012109   
    170. D(C  16,C  13,C  12,N   9)    -56.5207         0.012109   
    171. D(H  20,C  16,C  13,H  17)     48.5162         0.011672   
    172. D(H  20,C  16,C  13,C  12)    -72.0262         0.011672   
    173. D(C  19,C  16,C  13,H  18)    -71.8048         0.011672   
    174. D(C  19,C  16,C  13,H  17)    169.2693         0.011672   
    175. D(H  20,C  16,C  13,H  18)    167.4421         0.011672   
    176. D(C  19,C  16,C  13,C  12)     48.7269         0.011672   
    177. D(C  23,C  19,C  16,H  20)    -80.3736         0.012369   
    178. D(C   8,C  19,C  16,H  21)   -144.7743         0.012369   
    179. D(C   8,C  19,C  16,H  20)     99.2851         0.012369   
    180. D(C   8,C  19,C  16,C  13)    -21.7856         0.012369   
    181. D(C  23,C  19,C   8,N   9)    179.8848         0.019917   
    182. D(C  23,C  19,C   8,C   5)     -0.5282         0.019917   
    183. D(C  23,C  19,C  16,C  13)    158.5557         0.012369   
    184. D(C  16,C  19,C   8,N   9)      0.2174         0.019917   
    185. D(C  16,C  19,C   8,C   5)    179.8044         0.019917   
    186. D(H  40,C  22,C   5,C   8)   -179.1576         0.030088   
    187. D(H  40,C  22,C   5,C   2)      1.2173         0.030088   
    188. D(C  24,C  22,C   5,C   8)      1.2238         0.030088   
    189. D(C  24,C  22,C   5,C   2)   -178.4013         0.030088   
    190. D(O  25,C  23,C  19,C   8)   -178.6499         0.028111   
    191. D(C  24,C  23,C  19,C  16)   -178.8345         0.028111   
    192. D(C  24,C  23,C  19,C   8)      1.4965         0.028111   
    193. D(O  25,C  23,C  19,C  16)      1.0190         0.028111   
    194. D(C  27,C  24,C  23,O  25)     -0.8409         0.023826   
    195. D(C  27,C  24,C  23,C  19)    179.0079         0.023826   
    196. D(C  22,C  24,C  23,O  25)    179.0602         0.023826   
    197. D(C  22,C  24,C  23,C  19)     -1.0910         0.023826   
    198. D(C  27,C  24,C  22,H  40)     -0.0505         0.022372   
    199. D(C  27,C  24,C  22,C   5)    179.5708         0.022372   
    200. D(C  23,C  24,C  22,H  40)   -179.9460         0.022372   
    201. D(C  23,C  24,C  22,C   5)     -0.3248         0.022372   
    202. D(C  26,O  25,C  23,C  24)      1.8478         0.025667   
    203. D(C  26,O  25,C  23,C  19)   -178.0111         0.025667   
    204. D(O  29,C  26,O  25,C  23)    177.3927         0.021615   
    205. D(C  28,C  26,O  25,C  23)     -1.5557         0.021615   
    206. D(H  41,C  27,C  24,C  23)    176.5598         0.021446   
    207. D(H  41,C  27,C  24,C  22)     -3.3337         0.021446   
    208. D(C  28,C  27,C  24,C  23)     -0.3689         0.021446   
    209. D(C  28,C  27,C  24,C  22)    179.7376         0.021446   
    210. D(C  30,C  28,C  27,H  41)      4.9852         0.022893   
    211. D(C  30,C  28,C  27,C  24)   -178.1675         0.022893   
    212. D(C  26,C  28,C  27,H  41)   -176.2226         0.022893   
    213. D(C  26,C  28,C  27,C  24)      0.6247         0.022893   
    214. D(C  30,C  28,C  26,O  29)      0.3298         0.017386   
    215. D(C  30,C  28,C  26,O  25)    179.1085         0.017386   
    216. D(C  27,C  28,C  26,O  29)   -178.4819         0.017386   
    217. D(C  27,C  28,C  26,O  25)      0.2968         0.017386   
    218. D(C  32,C  30,C  28,C  27)     17.8400         0.017299   
    219. D(C  32,C  30,C  28,C  26)   -160.9379         0.017299   
    220. D(C  31,C  30,C  28,C  27)   -160.8299         0.017299   
    221. D(C  31,C  30,C  28,C  26)     20.3923         0.017299   
    222. D(H  39,C  31,C  30,C  32)   -179.1495         0.022184   
    223. D(H  39,C  31,C  30,C  28)     -0.4231         0.022184   
    224. D(C  35,C  31,C  30,C  32)     -0.0964         0.022184   
    225. D(C  35,C  31,C  30,C  28)    178.6301         0.022184   
    226. D(H  36,C  32,C  30,C  31)   -178.0678         0.020890   
    227. D(H  36,C  32,C  30,C  28)      3.1379         0.020890   
    228. D(N  33,C  32,C  30,C  31)     -0.3285         0.020890   
    229. D(N  33,C  32,C  30,C  28)   -179.1228         0.020890   
    230. D(C  34,N  33,C  32,H  36)    178.4678         0.036985   
    231. D(C  34,N  33,C  32,C  30)      0.6391         0.036985   
    232. D(H  38,C  34,N  33,C  32)    179.3861         0.033527   
    233. D(C  35,C  34,N  33,C  32)     -0.5271         0.033527   
    234. D(H  37,C  35,C  34,H  38)     -0.3815         0.026057   
    235. D(H  37,C  35,C  34,N  33)    179.5281         0.026057   
    236. D(C  31,C  35,C  34,H  38)   -179.7817         0.026057   
    237. D(C  31,C  35,C  34,N  33)      0.1279         0.026057   
    238. D(H  37,C  35,C  31,H  39)     -0.1605         0.029142   
    239. D(H  37,C  35,C  31,C  30)   -179.2104         0.029142   
    240. D(C  34,C  35,C  31,H  39)    179.2371         0.029142   
    241. D(C  34,C  35,C  31,C  30)      0.1871         0.029142   
    -----------------------------------------------------------------

Number of atoms                         .... 42
Number of degrees of freedom            .... 241


         *************************************************************
         *                GEOMETRY OPTIMIZATION CYCLE   1            *
         *************************************************************
---------------------------------
CARTESIAN COORDINATES (ANGSTROEM)
---------------------------------
  C     -6.561581   -1.481196   -0.143306
  C     -6.537991   -2.592804   -1.178141
  C     -5.564889   -3.677809   -0.734651
  H     -6.235911   -2.183030   -2.145506
  H     -7.545915   -2.994260   -1.288653
  C     -4.219506   -3.091444   -0.392938
  H     -5.446093   -4.439221   -1.507185
  H     -5.972764   -4.187166    0.146272
  C     -4.114213   -1.729730    0.033054
  N     -5.229268   -0.938757    0.103226
  H     -6.975828   -1.859097    0.803729
  H     -7.194972   -0.654599   -0.464729
  C     -5.173020    0.396835    0.686414
  C     -3.864242    1.091571    0.356229
  H     -5.294774    0.319988    1.777612
  H     -6.025216    0.957144    0.303800
  C     -2.691186    0.241198    0.826738
  H     -3.847077    2.068891    0.839517
  H     -3.804839    1.254440   -0.722795
  C     -2.836707   -1.188899    0.378993
  H     -2.631992    0.269468    1.921207
  H     -1.748556    0.647104    0.460789
  C     -3.077934   -3.855672   -0.477592
  C     -1.732445   -2.020938    0.297730
  C     -1.799182   -3.357221   -0.135368
  O     -0.525023   -1.477215    0.664691
  C      0.679566   -2.180084    0.597201
  C     -0.603391   -4.120126   -0.202564
  C      0.641857   -3.556465    0.149496
  O      1.657868   -1.517553    0.917370
  C      1.871190   -4.315661    0.046456
  C      3.077524   -3.997637    0.715432
  C      1.914519   -5.492371   -0.753384
  N      2.981265   -6.269128   -0.903387
  C      4.103370   -5.938691   -0.249075
  C      4.183725   -4.809795    0.566058
  H      1.042168   -5.787823   -1.322877
  H      5.106267   -4.580713    1.084246
  H      4.956722   -6.594606   -0.380232
  H      3.124774   -3.129760    1.352449
  H     -3.156014   -4.883219   -0.813531
  H     -0.678966   -5.159300   -0.482334

----------------------------
CARTESIAN COORDINATES (A.U.)
----------------------------
  NO LB      ZA    FRAG     MASS         X           Y           Z
   0 C     6.0000    0    12.011  -12.399592   -2.799055   -0.270810
   1 C     6.0000    0    12.011  -12.355012   -4.899690   -2.226363
   2 C     6.0000    0    12.011  -10.516117   -6.950051   -1.388289
   3 H     1.0000    0     1.008  -11.784164   -4.125328   -4.054418
   4 H     1.0000    0     1.008  -14.259712   -5.658331   -2.435202
   5 C     6.0000    0    12.011   -7.973711   -5.841983   -0.742544
   6 H     1.0000    0     1.008  -10.291624   -8.388911   -2.848166
   7 H     1.0000    0     1.008  -11.286888   -7.912598    0.276414
   8 C     6.0000    0    12.011   -7.774736   -3.268716    0.062462
   9 N     7.0000    0    14.007   -9.881884   -1.773993    0.195069
  10 H     1.0000    0     1.008  -13.182404   -3.513184    1.518827
  11 H     1.0000    0     1.008  -13.596528   -1.237013   -0.878210
  12 C     6.0000    0    12.011   -9.775592    0.749909    1.297135
  13 C     6.0000    0    12.011   -7.302359    2.062770    0.673176
  14 H     1.0000    0     1.008  -10.005673    0.604690    3.359201
  15 H     1.0000    0     1.008  -11.386009    1.808740    0.574098
  16 C     6.0000    0    12.011   -5.085605    0.455797    1.562308
  17 H     1.0000    0     1.008   -7.269922    3.909638    1.586457
  18 H     1.0000    0     1.008   -7.190104    2.370547   -1.365884
  19 C     6.0000    0    12.011   -5.360599   -2.246693    0.716193
  20 H     1.0000    0     1.008   -4.973744    0.509221    3.630554
  21 H     1.0000    0     1.008   -3.304292    1.222849    0.870766
  22 C     6.0000    0    12.011   -5.816452   -7.286164   -0.902519
  23 C     6.0000    0    12.011   -3.273846   -3.819020    0.562628
  24 C     6.0000    0    12.011   -3.399961   -6.344229   -0.255808
  25 O     8.0000    0    15.999   -0.992149   -2.791532    1.256085
  26 C     6.0000    0    12.011    1.284193   -4.119762    1.128546
  27 C     6.0000    0    12.011   -1.140243   -7.785909   -0.382791
  28 C     6.0000    0    12.011    1.212935   -6.720744    0.282506
  29 O     8.0000    0    15.999    3.132916   -2.867759    1.733578
  30 C     6.0000    0    12.011    3.536037   -8.155417    0.087789
  31 C     6.0000    0    12.011    5.815677   -7.554439    1.351970
  32 C     6.0000    0    12.011    3.617916  -10.379077   -1.423690
  33 N     7.0000    0    14.007    5.633774  -11.846935   -1.707155
  34 C     6.0000    0    12.011    7.754246  -11.222500   -0.470684
  35 C     6.0000    0    12.011    7.906095   -9.089196    1.069694
  36 H     1.0000    0     1.008    1.969411  -10.937400   -2.499875
  37 H     1.0000    0     1.008    9.649446   -8.656293    2.048929
  38 H     1.0000    0     1.008    9.366846  -12.461998   -0.718535
  39 H     1.0000    0     1.008    5.904966   -5.914388    2.555757
  40 H     1.0000    0     1.008   -5.964003   -9.227946   -1.537351
  41 H     1.0000    0     1.008   -1.283060   -9.749665   -0.911479

--------------------------------
INTERNAL COORDINATES (ANGSTROEM)
--------------------------------
 C      0   0   0     0.000000000000     0.00000000     0.00000000
 C      1   0   0     1.518918013349     0.00000000     0.00000000
 C      2   1   0     1.523431557709   109.43956309     0.00000000
 H      2   1   3     1.093143095092   109.44247963   238.93387223
 H      2   1   3     1.090545975852   108.91070215   121.45676805
 C      3   2   1     1.506866546260   111.04973975   308.25888770
 H      3   2   1     1.091177842721   111.12548541   186.02511225
 H      3   2   1     1.096281096062   109.09792391    68.80979004
 C      6   3   2     1.430671477773   120.23879764    25.93616228
 N      9   6   3     1.368908747179   120.34977113   358.42920511
 H      1   2   3     1.100583743147   109.92580579   294.52886458
 H      1   2   3     1.089844093477   111.29461957   175.93515710
 C     10   9   6     1.458449621473   121.21305441   172.47096682
 C     13  10   9     1.518084702135   111.43012993    36.69971612
 H     13  10   9     1.100655807235   109.16131548   274.93598495
 H     13  10   9     1.089301917072   107.48282072   158.84744861
 C     14  13  10     1.523342610122   109.95221994   303.47928161
 H     14  13  10     1.090420541128   109.10771480   182.05959002
 H     14  13  10     1.092862312823   109.25721170    64.61478821
 C      9   6   3     1.429753466133   119.85727337   178.84458043
 H     17  14  13     1.096432956728   109.60250146   287.97380500
 H     17  14  13     1.089600613419   110.76253330   171.12194663
 C      6   3   2     1.376371205220   120.69801861   205.55685213
 C     20   9   6     1.385022614606   118.09604042   359.47180729
 C     24  20   9     1.406300000976   123.44007978     1.49651218
 O     24  20   9     1.374104765793   116.56399528   181.35010110
 C     26  24  20     1.396285498311   123.09070830   181.98889485
 C     25  24  20     1.420019231814   119.01979393   179.00790224
 C     28  25  24     1.411489358897   121.10235954   359.63111379
 O     27  26  24     1.224145180667   113.85158533   177.39270530
 C     29  28  25     1.448535681151   121.44487560   181.83247904
 C     31  29  28     1.415594504463   124.87968608   199.17012855
 C     31  29  28     1.423470350632   119.93778669    17.84000455
 N     33  31  29     1.328081095999   124.84768387   180.87716229
 C     34  33  31     1.340310808031   118.23740016     0.63908446
 C     32  31  29     1.380433461205   119.97181930   178.63008438
 H     33  31  29     1.082871150264   119.77059582     3.13785469
 H     36  32  31     1.082626669445   120.43545616   180.78955868
 H     35  34  33     1.084266663119   116.78916890   179.38613999
 H     32  31  29     1.077605655040   119.84518573   359.57693122
 H     23   6   3     1.083883696752   119.05853882     1.21726157
 H     28  25  24     1.078826820374   118.08512461   176.55983262

---------------------------
INTERNAL COORDINATES (A.U.)
---------------------------
 C      0   0   0     0.000000000000     0.00000000     0.00000000
 C      1   0   0     2.870339065110     0.00000000     0.00000000
 C      2   1   0     2.878868427842   109.43956309     0.00000000
 H      2   1   3     2.065741074912   109.44247963   238.93387223
 H      2   1   3     2.060833230810   108.91070215   121.45676805
 C      3   2   1     2.847565092799   111.04973975   308.25888770
 H      3   2   1     2.062027286145   111.12548541   186.02511225
 H      3   2   1     2.071671037352   109.09792391    68.80979004
 C      6   3   2     2.703577280603   120.23879764    25.93616228
 N      9   6   3     2.586862634498   120.34977113   358.42920511
 H      1   2   3     2.079801861993   109.92580579   294.52886458
 H      1   2   3     2.059506865344   111.29461957   175.93515710
 C     10   9   6     2.756070364704   121.21305441   172.47096682
 C     13  10   9     2.868764335131   111.43012993    36.69971612
 H     13  10   9     2.079938043385   109.16131548   274.93598495
 H     13  10   9     2.058482300422   107.48282072   158.84744861
 C     14  13  10     2.878700341264   109.95221994   303.47928161
 H     14  13  10     2.060596193534   109.10771480   182.05959002
 H     14  13  10     2.065210473320   109.25721170    64.61478821
 C      9   6   3     2.701842490015   119.85727337   178.84458043
 H     17  14  13     2.071958012421   109.60250146   287.97380500
 H     17  14  13     2.059046754714   110.76253330   171.12194663
 C      6   3   2     2.600964636480   120.69801861   205.55685213
 C     20   9   6     2.617313430893   118.09604042   359.47180729
 C     24  20   9     2.657521863978   123.44007978     1.49651218
 O     24  20   9     2.596681686665   116.56399528   181.35010110
 C     26  24  20     2.638597196573   123.09070830   181.98889485
 C     25  24  20     2.683447453030   119.01979393   179.00790224
 C     28  25  24     2.667328329259   121.10235954   359.63111379
 O     27  26  24     2.313299139620   113.85158533   177.39270530
 C     29  28  25     2.737335732588   121.44487560   181.83247904
 C     31  29  28     2.675085930119   124.87968608   199.17012855
 C     31  29  28     2.689969122451   119.93778669    17.84000455
 N     33  31  29     2.509709555076   124.84768387   180.87716229
 C     34  33  31     2.532820361513   118.23740016     0.63908446
 C     32  31  29     2.608641187779   119.97181930   178.63008438
 H     33  31  29     2.046329912324   119.77059582     3.13785469
 H     36  32  31     2.045867910530   120.43545616   180.78955868
 H     35  34  33     2.048967049436   116.78916890   179.38613999
 H     32  31  29     2.036379568391   119.84518573   359.57693122
 H     23   6   3     2.048243347884   119.05853882     1.21726157
 H     28  25  24     2.038687236437   118.08512461   176.55983262

---------------------
BASIS SET INFORMATION
---------------------
There are 4 groups of distinct atoms

 Group   1 Type C   : 11s6p2d contracted to 5s3p2d pattern {62111/411/11}
 Group   2 Type H   : 5s1p contracted to 3s1p pattern {311/1}
 Group   3 Type N   : 11s6p2d contracted to 5s3p2d pattern {62111/411/11}
 Group   4 Type O   : 11s6p2d contracted to 5s3p2d pattern {62111/411/11}

Atom   0C    basis set group =>   1
Atom   1C    basis set group =>   1
Atom   2C    basis set group =>   1
Atom   3H    basis set group =>   2
Atom   4H    basis set group =>   2
Atom   5C    basis set group =>   1
Atom   6H    basis set group =>   2
Atom   7H    basis set group =>   2
Atom   8C    basis set group =>   1
Atom   9N    basis set group =>   3
Atom  10H    basis set group =>   2
Atom  11H    basis set group =>   2
Atom  12C    basis set group =>   1
Atom  13C    basis set group =>   1
Atom  14H    basis set group =>   2
Atom  15H    basis set group =>   2
Atom  16C    basis set group =>   1
Atom  17H    basis set group =>   2
Atom  18H    basis set group =>   2
Atom  19C    basis set group =>   1
Atom  20H    basis set group =>   2
Atom  21H    basis set group =>   2
Atom  22C    basis set group =>   1
Atom  23C    basis set group =>   1
Atom  24C    basis set group =>   1
Atom  25O    basis set group =>   4
Atom  26C    basis set group =>   1
Atom  27C    basis set group =>   1
Atom  28C    basis set group =>   1
Atom  29O    basis set group =>   4
Atom  30C    basis set group =>   1
Atom  31C    basis set group =>   1
Atom  32C    basis set group =>   1
Atom  33N    basis set group =>   3
Atom  34C    basis set group =>   1
Atom  35C    basis set group =>   1
Atom  36H    basis set group =>   2
Atom  37H    basis set group =>   2
Atom  38H    basis set group =>   2
Atom  39H    basis set group =>   2
Atom  40H    basis set group =>   2
Atom  41H    basis set group =>   2
---------------------------------
AUXILIARY/J BASIS SET INFORMATION
---------------------------------
There are 4 groups of distinct atoms

 Group   1 Type C   : 12s5p4d2f1g contracted to 6s4p3d1f1g pattern {711111/2111/211/2/1}
 Group   2 Type H   : 5s2p1d contracted to 3s1p1d pattern {311/2/1}
 Group   3 Type N   : 12s5p4d2f1g contracted to 6s4p3d1f1g pattern {711111/2111/211/2/1}
 Group   4 Type O   : 12s5p4d2f1g contracted to 6s4p3d1f1g pattern {711111/2111/211/2/1}

Atom   0C    basis set group =>   1
Atom   1C    basis set group =>   1
Atom   2C    basis set group =>   1
Atom   3H    basis set group =>   2
Atom   4H    basis set group =>   2
Atom   5C    basis set group =>   1
Atom   6H    basis set group =>   2
Atom   7H    basis set group =>   2
Atom   8C    basis set group =>   1
Atom   9N    basis set group =>   3
Atom  10H    basis set group =>   2
Atom  11H    basis set group =>   2
Atom  12C    basis set group =>   1
Atom  13C    basis set group =>   1
Atom  14H    basis set group =>   2
Atom  15H    basis set group =>   2
Atom  16C    basis set group =>   1
Atom  17H    basis set group =>   2
Atom  18H    basis set group =>   2
Atom  19C    basis set group =>   1
Atom  20H    basis set group =>   2
Atom  21H    basis set group =>   2
Atom  22C    basis set group =>   1
Atom  23C    basis set group =>   1
Atom  24C    basis set group =>   1
Atom  25O    basis set group =>   4
Atom  26C    basis set group =>   1
Atom  27C    basis set group =>   1
Atom  28C    basis set group =>   1
Atom  29O    basis set group =>   4
Atom  30C    basis set group =>   1
Atom  31C    basis set group =>   1
Atom  32C    basis set group =>   1
Atom  33N    basis set group =>   3
Atom  34C    basis set group =>   1
Atom  35C    basis set group =>   1
Atom  36H    basis set group =>   2
Atom  37H    basis set group =>   2
Atom  38H    basis set group =>   2
Atom  39H    basis set group =>   2
Atom  40H    basis set group =>   2
Atom  41H    basis set group =>   2
---------------------------------
AUXILIARY/C BASIS SET INFORMATION
---------------------------------
There are 4 groups of distinct atoms

 Group   1 Type C   : 8s6p5d3f1g contracted to 8s6p4d3f1g pattern {11111111/111111/2111/111/1}
 Group   2 Type H   : 4s3p2d contracted to 4s2p1d pattern {1111/21/2}
 Group   3 Type N   : 8s6p5d3f1g contracted to 8s6p4d3f1g pattern {11111111/111111/2111/111/1}
 Group   4 Type O   : 8s6p5d3f1g contracted to 8s6p4d3f1g pattern {11111111/111111/2111/111/1}

Atom   0C    basis set group =>   1
Atom   1C    basis set group =>   1
Atom   2C    basis set group =>   1
Atom   3H    basis set group =>   2
Atom   4H    basis set group =>   2
Atom   5C    basis set group =>   1
Atom   6H    basis set group =>   2
Atom   7H    basis set group =>   2
Atom   8C    basis set group =>   1
Atom   9N    basis set group =>   3
Atom  10H    basis set group =>   2
Atom  11H    basis set group =>   2
Atom  12C    basis set group =>   1
Atom  13C    basis set group =>   1
Atom  14H    basis set group =>   2
Atom  15H    basis set group =>   2
Atom  16C    basis set group =>   1
Atom  17H    basis set group =>   2
Atom  18H    basis set group =>   2
Atom  19C    basis set group =>   1
Atom  20H    basis set group =>   2
Atom  21H    basis set group =>   2
Atom  22C    basis set group =>   1
Atom  23C    basis set group =>   1
Atom  24C    basis set group =>   1
Atom  25O    basis set group =>   4
Atom  26C    basis set group =>   1
Atom  27C    basis set group =>   1
Atom  28C    basis set group =>   1
Atom  29O    basis set group =>   4
Atom  30C    basis set group =>   1
Atom  31C    basis set group =>   1
Atom  32C    basis set group =>   1
Atom  33N    basis set group =>   3
Atom  34C    basis set group =>   1
Atom  35C    basis set group =>   1
Atom  36H    basis set group =>   2
Atom  37H    basis set group =>   2
Atom  38H    basis set group =>   2
Atom  39H    basis set group =>   2
Atom  40H    basis set group =>   2
Atom  41H    basis set group =>   2
------------------------------------------------------------------------------
                             ORCA STARTUP CALCULATIONS
                           -- RI-GTO INTEGRALS CHOSEN --
------------------------------------------------------------------------------
------------------------------------------------------------------------------
                   ___                                                        
                  /   \      - P O W E R E D   B Y -                         
                 /     \                                                     
                 |  |  |   _    _      __       _____    __    __             
                 |  |  |  | |  | |    /  \     |  _  \  |  |  /  |          
                  \  \/   | |  | |   /    \    | | | |  |  | /  /          
                 / \  \   | |__| |  /  /\  \   | |_| |  |  |/  /          
                |  |  |   |  __  | /  /__\  \  |    /   |      \           
                |  |  |   | |  | | |   __   |  |    \   |  |\   \          
                \     /   | |  | | |  |  |  |  | |\  \  |  | \   \       
                 \___/    |_|  |_| |__|  |__|  |_| \__\ |__|  \__/        
                                                                              
                      - O R C A' S   B I G   F R I E N D -                    
                                      &                                       
                       - I N T E G R A L  F E E D E R -                       
                                                                              
 v1 FN, 2020, v2 2021, v3 2022-2024                                           
------------------------------------------------------------------------------


----------------------
SHARK INTEGRAL PACKAGE
----------------------

Number of atoms                             ...     42
Number of basis functions                   ...    684
Number of shells                            ...    312
Maximum angular momentum                    ...      2
Integral batch strategy                     ... SHARK/LIBINT Hybrid
RI-J (if used) integral strategy            ... SPLIT-RIJ (Revised 2003 algorithm where possible)
Printlevel                                  ...      1
Contraction scheme used                     ... SEGMENTED contraction
Prescreening option                         ... SCHWARTZ
   Thresh                                   ... 2.500e-11
   Tcut                                     ... 2.500e-12
   Tpresel                                  ... 2.500e-12 
Coulomb Range Separation                    ... NOT USED
Exchange Range Separation                   ... NOT USED
Multipole approximations                    ... NOT USED
Finite Nucleus Model                        ... NOT USED
CABS basis                                  ... NOT available
Auxiliary Coulomb fitting basis             ... AVAILABLE
   # of basis functions in Aux-J            ...   1374
   # of shells in Aux-J                     ...    450
   Maximum angular momentum in Aux-J        ...      4
Auxiliary J/K fitting basis                 ... NOT available
Auxiliary Correlation fitting basis         ... AVAILABLE
   # of basis functions in Aux-C            ...   2094
   # of shells in Aux-C                     ...    654
   Maximum angular momentum in Aux-C        ...      4
Auxiliary 'external' fitting basis          ... NOT available

Checking pre-screening integrals            ... done (  0.0 sec) Dimension = 312
Check shell pair data                       ... done (  0.0 sec)
Shell pair information
Shell pair cut-off parameter TPreSel        ...   2.5e-12
Total number of shell pairs                 ...     48828
Shell pairs after pre-screening             ...     32357
Total number of primitive shell pairs       ...    159912
Primitive shell pairs kept                  ...     69611
          la=0 lb=0:   9539 shell pairs
          la=1 lb=0:  10737 shell pairs
          la=1 lb=1:   3022 shell pairs
          la=2 lb=0:   5306 shell pairs
          la=2 lb=1:   2998 shell pairs
          la=2 lb=2:    755 shell pairs

Calculating one electron integrals          ... done (  0.1 sec)
Calculating RI/J V-Matrix + Cholesky decomp.... done (  0.6 sec)
Calculating RI/C V-Matrix + Cholesky decomp.... done (  1.1 sec)
Calculating Nuclear repulsion               ... done (  0.0 sec) ENN=   1939.505806996103 Eh

Diagonalization of the overlap matrix:
Smallest eigenvalue                        ... 3.540e-06
Time for diagonalization                   ...    0.038 sec
Threshold for overlap eigenvalues          ... 1.000e-07
Number of eigenvalues below threshold      ... 0
Time for construction of square roots      ...    0.054 sec
Total time needed                          ...    0.102 sec

-------------------
DFT GRID GENERATION
-------------------

General Integration Accuracy     IntAcc      ... 4.388
Radial Grid Type                 RadialGrid  ... OptM3 with GC (2021)
Angular Grid (max. ang.)         AngularGrid ... 4 (Lebedev-302)
Angular grid pruning method      GridPruning ... 4 (adaptive)
Weight generation scheme         WeightScheme... mBecke (2022)
Basis function cutoff            BFCut       ... 1.0000e-11
Integration weight cutoff        WCut        ... 1.0000e-14
Partially contracted basis set               ... off
Rotationally invariant grid construction     ... off
Angular grids for H and He will be reduced by one unit

Total number of grid points                  ...   200265
Total number of batches                      ...     3147
Average number of points per batch           ...       63
Average number of grid points per atom       ...     4768

--------------------
COSX GRID GENERATION
--------------------

GRIDX 1
-------
General Integration Accuracy     IntAcc      ... 3.816
Radial Grid Type                 RadialGrid  ... OptM3 with GC (2021)
Angular Grid (max. ang.)         AngularGrid ... 1 (Lebedev-50)
Angular grid pruning method      GridPruning ... 4 (adaptive)
Weight generation scheme         WeightScheme... mBecke (2022)
Basis function cutoff            BFCut       ... 1.0000e-11
Integration weight cutoff        WCut        ... 1.0000e-14
Partially contracted basis set               ... on
Rotationally invariant grid construction     ... off
Angular grids for H and He will be reduced by one unit

Total number of grid points                  ...    25429
Total number of batches                      ...      226
Average number of points per batch           ...      112
Average number of grid points per atom       ...      605
UseSFitting                                  ... on

GRIDX 2
-------
General Integration Accuracy     IntAcc      ... 4.020
Radial Grid Type                 RadialGrid  ... OptM3 with GC (2021)
Angular Grid (max. ang.)         AngularGrid ... 2 (Lebedev-110)
Angular grid pruning method      GridPruning ... 4 (adaptive)
Weight generation scheme         WeightScheme... mBecke (2022)
Basis function cutoff            BFCut       ... 1.0000e-11
Integration weight cutoff        WCut        ... 1.0000e-14
Partially contracted basis set               ... on
Rotationally invariant grid construction     ... off
Angular grids for H and He will be reduced by one unit

Total number of grid points                  ...    55256
Total number of batches                      ...      454
Average number of points per batch           ...      121
Average number of grid points per atom       ...     1316
UseSFitting                                  ... on

GRIDX 3
-------
General Integration Accuracy     IntAcc      ... 4.338
Radial Grid Type                 RadialGrid  ... OptM3 with GC (2021)
Angular Grid (max. ang.)         AngularGrid ... 3 (Lebedev-194)
Angular grid pruning method      GridPruning ... 4 (adaptive)
Weight generation scheme         WeightScheme... mBecke (2022)
Basis function cutoff            BFCut       ... 1.0000e-11
Integration weight cutoff        WCut        ... 1.0000e-14
Partially contracted basis set               ... on
Rotationally invariant grid construction     ... off
Angular grids for H and He will be reduced by one unit

Total number of grid points                  ...   120952
Total number of batches                      ...      972
Average number of points per batch           ...      124
Average number of grid points per atom       ...     2880
UseSFitting                                  ... on
Initializing property integral containers    ... done (  0.2 sec)

SHARK setup successfully completed in   9.9 seconds

Maximum memory used throughout the entire STARTUP-calculation: 136.0 MB
-------------------------------------------------------------------------------
                                 ORCA GUESS
                   Start orbitals & Density for SCF / CASSCF
-------------------------------------------------------------------------------

------------
SCF SETTINGS
------------
Hamiltonian:
 Density Functional     Method          .... DFT(GTOs)
 Exchange Functional    Exchange        .... B88
   X-Alpha parameter    XAlpha          ....  0.666667
   Becke's b parameter  XBeta           ....  0.004200
 Correlation Functional Correlation     .... LYP
 LDA part of GGA corr.  LDAOpt          .... VWN-5
 Gradients option       PostSCFGGA      .... off
 Hybrid DFT is turned on
   Fraction HF Exchange ScalHFX         ....  0.200000
   Scaling of DF-GGA-X  ScalDFX         ....  0.720000
   Scaling of DF-GGA-C  ScalDFC         ....  0.810000
   Scaling of DF-LDA-C  ScalLDAC        ....  1.000000
   Perturbative correction              ....  0.000000
   NL short-range parameter             ....  4.800000
 RI-approximation to the Coulomb term is turned on
   Number of AuxJ basis functions       .... 1374
   RIJ-COSX (HFX calculated with COS-X)).... on


General Settings:
 Integral files         IntName         .... NMU-1
 Hartree-Fock type      HFTyp           .... RHF
 Total Charge           Charge          ....    0
 Multiplicity           Mult            ....    1
 Number of Electrons    NEL             ....  168
 Basis Dimension        Dim             ....  684
 Nuclear Repulsion      ENuc            ....   1939.5058069961 Eh

Convergence Acceleration:
 AO-DIIS                CNVDIIS         .... on
   Start iteration      DIISMaxIt       ....    12
   Startup error        DIISStart       ....  0.200000
   # of expansion vecs  DIISMaxEq       ....     5
   Bias factor          DIISBfac        ....   1.050
   Max. coefficient     DIISMaxC        ....  10.000
 MO-DIIS                CNVKDIIS        .... off
 Trust-Rad. Augm. Hess. CNVTRAH         .... auto
   Auto Start mean grad. ratio tolernc. ....  1.125000
   Auto Start start iteration           ....    50
   Auto Start num. interpolation iter.  ....    10
   Max. Number of Micro iterations      ....    24
   Max. Number of Macro iterations      .... Maxiter - #DIIS iter
   Number of Davidson start vectors     ....     2
   Converg. threshold    (grad. norm)   ....   1.000e-05
   Grad. Scal. Fac. for Micro threshold ....   0.100
   Minimum threshold for Micro iter.    ....   1.000e-02
   NR start threshold (gradient norm)   ....   1.000e-04
   Initial trust radius                 ....   0.400
   Minimum AH scaling param. (alpha)    ....   1.000
   Maximum AH scaling param. (alpha)    .... 1000.000
   Quad. conv. algorithm                .... NR
   White noise on init. David. guess    .... on
   Maximum white noise                  ....   0.010
   Pseudo random numbers                .... off
   Inactive MOs                         .... canonical
   Orbital update algorithm             .... Taylor
   Preconditioner                       .... Diag
   Full preconditioner red. dimension   ....   250
 SOSCF                  CNVSOSCF        .... on
   Start iteration      SOSCFMaxIt      ....   150
   Startup grad/error   SOSCFStart      ....  0.003300
   Hessian update       SOSCFHessUp     .... L-BFGS
 Level Shifting         CNVShift        .... on
   Level shift para.    LevelShift      ....    0.2500
   Turn off err/grad.   ShiftErr        ....    0.0010
 Zerner damping         CNVZerner       .... off
 Static damping         CNVDamp         .... on
   Fraction old density DampFac         ....    0.7000
   Max. Damping (<1)    DampMax         ....    0.9800
   Min. Damping (>=0)   DampMin         ....    0.0000
   Turn off err/grad.   DampErr         ....    0.1000

SCF Procedure:
 Maximum # iterations   MaxIter         ....   125
 SCF integral mode      SCFMode         .... Direct
   Integral package                     .... SHARK and LIBINT hybrid scheme
 Reset frequency        DirectResetFreq ....    20
 Integral Threshold     Thresh          ....  2.500e-11 Eh
 Primitive CutOff       TCut            ....  2.500e-12 Eh

Convergence Tolerance:
 Convergence Check Mode ConvCheckMode   .... Total+1el-Energy
 Convergence forced     ConvForced      .... 1
 Energy Change          TolE            ....  1.000e-08 Eh
 1-El. energy change                    ....  1.000e-05 Eh
 Orbital Gradient       TolG            ....  1.000e-05
 Orbital Rotation angle TolX            ....  1.000e-05
 DIIS Error             TolErr          ....  5.000e-07

------------------------------
INITIAL GUESS: MODEL POTENTIAL
------------------------------
Loading Hartree-Fock densities                     ... done
Calculating cut-offs                               ... done
Initializing the effective Hamiltonian             ... done
Setting up the integral package (SHARK)            ... done
Starting the Coulomb interaction                   ... done (   1.2 sec)
Making the grid                                    ... done (   0.9 sec)
Mapping shells                                     ... done
Starting the XC term evaluation                    ... done (   0.6 sec)
  promolecular density results
     # of electrons  =    168.000045012
     EX              =   -137.853649203
     EC              =     -5.739172717
     EX+EC           =   -143.592821920
Transforming the Hamiltonian                       ... done (   0.0 sec)
Diagonalizing the Hamiltonian                      ... done (   0.0 sec)
Back transforming the eigenvectors                 ... done (   0.0 sec)
Now organizing SCF variables                       ... done
                      ------------------
                      INITIAL GUESS DONE (   3.0 sec)
                      ------------------
             **** ENERGY FILE WAS UPDATED (NMU-1.en.tmp) ****
Finished Guess after   3.7 sec
Maximum memory used throughout the entire GUESS-calculation: 90.2 MB

-------------------------------------------------------------------------------------------
                                      ORCA LEAN-SCF
                              memory conserving SCF solver
-------------------------------------------------------------------------------------------

--------------------
CPCM SOLVATION MODEL
--------------------
CPCM parameters:
  Epsilon                                         ...      80.1510
  Refrac                                          ...       1.3328
  Rsolv                                           ...       1.3000
  Surface type                                    ... GAUSSIAN VDW
  Discretization scheme                           ... Constant charge density
    Threshold for H atoms                         ...       5.0000 (charges/Ang^2)
    Threshold for non-H atoms                     ...       5.0000 (charges/Ang^2)
  Epsilon function type                           ...         CPCM
Solvent:                                          ... WATER
Radii:
  Scheme                                          ... Element-dependent radii
  Radius for C  used is    3.8550 Bohr (=   2.0400 Ang.)
  Radius for H  used is    2.4944 Bohr (=   1.3200 Ang.)
  Radius for N  used is    3.5149 Bohr (=   1.8600 Ang.)
  Radius for O  used is    3.4469 Bohr (=   1.8240 Ang.)
Calculating surface                               ...        done! (  0.0s)
Cavity surface points                             ...         3538
Cavity Volume                                     ...    2464.0290
Cavity Surface-area                               ...    1214.4213
Calculating surface distance matrix               ...        done! (  0.0s)
Performing Cholesky decomposition & store         ...        done! (  1.3s)
Overall time for CPCM initialization              ...                 1.3s

----------------------------------------D-I-I-S--------------------------------------------
Iteration    Energy (Eh)           Delta-E    RMSDP     MaxDP     DIISErr   Damp  Time(sec)
-------------------------------------------------------------------------------------------
               ***  Starting incremental Fock matrix formation  ***
    1    -1032.1471248285674847     0.00e+00  1.65e-03  9.16e-02  3.06e-01  0.700  37.4
    2    -1032.3970006668973838    -2.50e-01  1.35e-03  9.23e-02  1.16e-01  0.700  20.2
                               ***Turning on AO-DIIS***
    3    -1032.4994576426997810    -1.02e-01  5.99e-04  2.84e-02  3.82e-02  0.700  19.3
    4    -1032.5618146548081313    -6.24e-02  1.03e-03  5.28e-02  2.01e-02  0.000  18.4
    5    -1032.6968307338297564    -1.35e-01  2.60e-04  2.09e-02  6.96e-03  0.000  19.2
                              *** Initializing SOSCF ***
---------------------------------------S-O-S-C-F--------------------------------------
Iteration    Energy (Eh)           Delta-E    RMSDP     MaxDP     MaxGrad    Time(sec)
--------------------------------------------------------------------------------------
    6    -1032.6975910095352447    -7.60e-04  9.15e-05  7.64e-03  2.25e-03    17.4
               *** Restarting incremental Fock matrix formation ***
    7    -1032.6976324680290418    -4.15e-05  1.27e-04  5.49e-03  2.89e-04    38.4
    8    -1032.6976070112878006     2.55e-05  3.69e-05  2.87e-03  5.31e-04    26.8
    9    -1032.6976463672258433    -3.94e-05  1.05e-05  4.47e-04  6.21e-05    25.4
   10    -1032.6976459520155913     4.15e-07  3.66e-06  1.52e-04  1.22e-04    23.0
   11    -1032.6976466487180915    -6.97e-07  2.75e-06  1.64e-04  1.30e-05    19.4
   12    -1032.6976466257328866     2.30e-08  2.29e-06  2.09e-04  2.10e-05    19.8
   13    -1032.6976466847240772    -5.90e-08  3.71e-06  3.05e-04  3.60e-06    18.8
   14    -1032.6976467096928900    -2.50e-08  1.51e-06  1.01e-04  3.93e-06    18.1
   15    -1032.6976467321919699    -2.25e-08  5.88e-06  5.66e-04  6.46e-07    14.9
                  *** Gradient check signals convergence ***

               *****************************************************
               *                     SUCCESS                       *
               *           SCF CONVERGED AFTER  15 CYCLES          *
               *****************************************************

Recomputing exchange energy using gridx3       ... done (   61.876 sec)
Old exchange energy                            :    -27.990296584 Eh
New exchange energy                            :    -27.990283190 Eh
Exchange energy change after final integration :      0.000013394 Eh
Total energy after final integration           :  -1032.697633338 Eh
             **** ENERGY FILE WAS UPDATED (NMU-1.en.tmp) ****

----------------
TOTAL SCF ENERGY
----------------

Total Energy       :      -1032.69763333838819 Eh          -28101.13124 eV

Components:
Nuclear Repulsion  :       1939.50580699610282 Eh           52776.63612 eV
Electronic Energy  :      -2972.17529308556777 Eh          -80877.00143 eV
One Electron Energy:      -5255.11540653188058 Eh         -142998.96014 eV
Two Electron Energy:       2282.94011344631281 Eh           62121.95871 eV
CPCM Dielectric    :         -0.02816064272700 Eh              -0.76629 eV

Virial components:
Potential Energy   :      -2060.75843786970154 Eh          -56076.08795 eV
Kinetic Energy     :       1028.06080453131335 Eh           27974.95671 eV
Virial Ratio       :          2.00451026708405

DFT components:
N(Alpha)           :       83.999955041500 electrons
N(Beta)            :       83.999955041500 electrons
N(Total)           :      167.999910083000 electrons
E(X)               :     -111.247012075385 Eh       
E(C)               :       -6.753634079757 Eh       
E(XC)              :     -118.000646155142 Eh       

CPCM Solvation Model Properties:
Surface-charge          :         -0.03918884384855
Corrected charge        :         -0.00000000000000
Outlying charge corr.   :          0.00007908394662 Eh               0.00215 eV
Free-energy (cav+disp)  :  This term is not implemented in the current solvation scheme

---------------
SCF CONVERGENCE
---------------

  Last Energy change         ...    2.2499e-08  Tolerance :   1.0000e-08
  Last MAX-Density change    ...    5.6622e-04  Tolerance :   1.0000e-07
  Last RMS-Density change    ...    5.8754e-06  Tolerance :   5.0000e-09
  Last DIIS Error            ...    2.2477e-03  Tolerance :   5.0000e-07
  Last Orbital Gradient      ...    6.4553e-07  Tolerance :   1.0000e-05
  Last Orbital Rotation      ...    2.1541e-06  Tolerance :   1.0000e-05


----------------
ORBITAL ENERGIES
----------------

  NO   OCC          E(Eh)            E(eV) 
   0   2.0000     -19.190838      -522.2093 
   1   2.0000     -19.109905      -520.0069 
   2   2.0000     -14.343962      -390.3191 
   3   2.0000     -14.317676      -389.6038 
   4   2.0000     -10.306475      -280.4534 
   5   2.0000     -10.244729      -278.7732 
   6   2.0000     -10.229126      -278.3487 
   7   2.0000     -10.207732      -277.7665 
   8   2.0000     -10.206886      -277.7435 
   9   2.0000     -10.203219      -277.6437 
  10   2.0000     -10.199849      -277.5520 
  11   2.0000     -10.199577      -277.5446 
  12   2.0000     -10.198228      -277.5079 
  13   2.0000     -10.197703      -277.4936 
  14   2.0000     -10.185999      -277.1751 
  15   2.0000     -10.183377      -277.1038 
  16   2.0000     -10.181351      -277.0486 
  17   2.0000     -10.180928      -277.0371 
  18   2.0000     -10.179343      -276.9940 
  19   2.0000     -10.177497      -276.9438 
  20   2.0000     -10.170253      -276.7467 
  21   2.0000     -10.169403      -276.7235 
  22   2.0000     -10.166634      -276.6482 
  23   2.0000     -10.166466      -276.6436 
  24   2.0000      -1.113889       -30.3105 
  25   2.0000      -1.027057       -27.9476 
  26   2.0000      -0.966753       -26.3067 
  27   2.0000      -0.946176       -25.7468 
  28   2.0000      -0.866306       -23.5734 
  29   2.0000      -0.840472       -22.8704 
  30   2.0000      -0.825683       -22.4680 
  31   2.0000      -0.800927       -21.7943 
  32   2.0000      -0.778915       -21.1954 
  33   2.0000      -0.770815       -20.9749 
  34   2.0000      -0.761435       -20.7197 
  35   2.0000      -0.741256       -20.1706 
  36   2.0000      -0.689532       -18.7631 
  37   2.0000      -0.681453       -18.5433 
  38   2.0000      -0.659601       -17.9486 
  39   2.0000      -0.640507       -17.4291 
  40   2.0000      -0.635791       -17.3008 
  41   2.0000      -0.627751       -17.0820 
  42   2.0000      -0.614340       -16.7170 
  43   2.0000      -0.595119       -16.1940 
  44   2.0000      -0.561648       -15.2832 
  45   2.0000      -0.536405       -14.5963 
  46   2.0000      -0.529894       -14.4191 
  47   2.0000      -0.525009       -14.2862 
  48   2.0000      -0.507657       -13.8141 
  49   2.0000      -0.492368       -13.3980 
  50   2.0000      -0.480857       -13.0848 
  51   2.0000      -0.475516       -12.9394 
  52   2.0000      -0.471947       -12.8423 
  53   2.0000      -0.468753       -12.7554 
  54   2.0000      -0.462390       -12.5823 
  55   2.0000      -0.450601       -12.2615 
  56   2.0000      -0.446498       -12.1498 
  57   2.0000      -0.435028       -11.8377 
  58   2.0000      -0.430981       -11.7276 
  59   2.0000      -0.428930       -11.6718 
  60   2.0000      -0.420363       -11.4386 
  61   2.0000      -0.415257       -11.2997 
  62   2.0000      -0.407268       -11.0823 
  63   2.0000      -0.404918       -11.0184 
  64   2.0000      -0.402677       -10.9574 
  65   2.0000      -0.398831       -10.8527 
  66   2.0000      -0.396118       -10.7789 
  67   2.0000      -0.376119       -10.2347 
  68   2.0000      -0.369326       -10.0499 
  69   2.0000      -0.362084        -9.8528 
  70   2.0000      -0.357791        -9.7360 
  71   2.0000      -0.350498        -9.5375 
  72   2.0000      -0.341830        -9.3017 
  73   2.0000      -0.339435        -9.2365 
  74   2.0000      -0.335132        -9.1194 
  75   2.0000      -0.321456        -8.7473 
  76   2.0000      -0.317408        -8.6371 
  77   2.0000      -0.298822        -8.1313 
  78   2.0000      -0.289956        -7.8901 
  79   2.0000      -0.282016        -7.6741 
  80   2.0000      -0.264049        -7.1851 
  81   2.0000      -0.245484        -6.6800 
  82   2.0000      -0.236886        -6.4460 
  83   2.0000      -0.189926        -5.1682 
  84   0.0000      -0.077365        -2.1052 
  85   0.0000      -0.033532        -0.9125 
  86   0.0000      -0.022149        -0.6027 
  87   0.0000      -0.007034        -0.1914 
  88   0.0000       0.007131         0.1940 
  89   0.0000       0.038862         1.0575 
  90   0.0000       0.052373         1.4251 
  91   0.0000       0.062875         1.7109 
  92   0.0000       0.067834         1.8459 
  93   0.0000       0.068961         1.8765 
  94   0.0000       0.071304         1.9403 
*Only the first 10 virtual orbitals were printed.

                    ********************************
                    * MULLIKEN POPULATION ANALYSIS *
                    ********************************

-----------------------
MULLIKEN ATOMIC CHARGES
-----------------------
   0 C :   -0.112684
   1 C :   -0.162792
   2 C :   -0.232481
   3 H :    0.102228
   4 H :    0.117384
   5 C :    0.240578
   6 H :    0.126894
   7 H :    0.111633
   8 C :    0.000684
   9 N :   -0.137777
  10 H :    0.105838
  11 H :    0.132289
  12 C :   -0.113994
  13 C :   -0.151415
  14 H :    0.106078
  15 H :    0.134081
  16 C :   -0.273725
  17 H :    0.117202
  18 H :    0.102609
  19 C :    0.098087
  20 H :    0.112669
  21 H :    0.126761
  22 C :   -0.553232
  23 C :    0.093950
  24 C :    0.425010
  25 O :   -0.369748
  26 C :    0.421716
  27 C :   -0.287494
  28 C :    0.174813
  29 O :   -0.573939
  30 C :    0.146203
  31 C :   -0.195988
  32 C :   -0.033674
  33 N :   -0.500715
  34 C :    0.063598
  35 C :   -0.073207
  36 H :    0.118464
  37 H :    0.115063
  38 H :    0.123198
  39 H :    0.129974
  40 H :    0.091255
  41 H :    0.134605
Sum of atomic charges:   -0.0000000

--------------------------------
MULLIKEN REDUCED ORBITAL CHARGES
--------------------------------
  0 C s       :     3.158346  s :     3.158346
      pz      :     1.013063  p :     2.845976
      px      :     0.820372
      py      :     1.012541
      dz2     :     0.021573  d :     0.108362
      dxz     :     0.030903
      dyz     :     0.015296
      dx2y2   :     0.016272
      dxy     :     0.024317

  1 C s       :     3.116791  s :     3.116791
      pz      :     0.981055  p :     2.955335
      px      :     1.023119
      py      :     0.951161
      dz2     :     0.019827  d :     0.090666
      dxz     :     0.009868
      dyz     :     0.024532
      dx2y2   :     0.018430
      dxy     :     0.018010

  2 C s       :     3.141725  s :     3.141725
      pz      :     1.037929  p :     3.001022
      px      :     0.953296
      py      :     1.009797
      dz2     :     0.012027  d :     0.089734
      dxz     :     0.019704
      dyz     :     0.016119
      dx2y2   :     0.023072
      dxy     :     0.018812

  3 H s       :     0.874454  s :     0.874454
      pz      :     0.013187  p :     0.023319
      px      :     0.004829
      py      :     0.005303

  4 H s       :     0.858752  s :     0.858752
      pz      :     0.004516  p :     0.023863
      px      :     0.013892
      py      :     0.005456

  5 C s       :     3.067343  s :     3.067343
      pz      :     0.976360  p :     2.547245
      px      :     0.764741
      py      :     0.806144
      dz2     :     0.009736  d :     0.144834
      dxz     :     0.022917
      dyz     :     0.023314
      dx2y2   :     0.046113
      dxy     :     0.042755

  6 H s       :     0.849297  s :     0.849297
      pz      :     0.009538  p :     0.023809
      px      :     0.003992
      py      :     0.010278

  7 H s       :     0.865055  s :     0.865055
      pz      :     0.011087  p :     0.023312
      px      :     0.005283
      py      :     0.006942

  8 C s       :     3.017983  s :     3.017983
      pz      :     0.925863  p :     2.789912
      px      :     0.903076
      py      :     0.960973
      dz2     :     0.009443  d :     0.191421
      dxz     :     0.043579
      dyz     :     0.030419
      dx2y2   :     0.053858
      dxy     :     0.054122

  9 N s       :     3.381009  s :     3.381009
      pz      :     1.462583  p :     3.658835
      px      :     1.085447
      py      :     1.110805
      dz2     :     0.009277  d :     0.097934
      dxz     :     0.015395
      dyz     :     0.013793
      dx2y2   :     0.029017
      dxy     :     0.030451

 10 H s       :     0.871620  s :     0.871620
      pz      :     0.012294  p :     0.022541
      px      :     0.005059
      py      :     0.005188

 11 H s       :     0.844078  s :     0.844078
      pz      :     0.005132  p :     0.023634
      px      :     0.007910
      py      :     0.010593

 12 C s       :     3.159400  s :     3.159400
      pz      :     1.004936  p :     2.846586
      px      :     1.034523
      py      :     0.807127
      dz2     :     0.026015  d :     0.108008
      dxz     :     0.013094
      dyz     :     0.021946
      dx2y2   :     0.023727
      dxy     :     0.023226

 13 C s       :     3.108440  s :     3.108440
      pz      :     1.023190  p :     2.952175
      px      :     0.921834
      py      :     1.007151
      dz2     :     0.020211  d :     0.090800
      dxz     :     0.016053
      dyz     :     0.009078
      dx2y2   :     0.026229
      dxy     :     0.019230

 14 H s       :     0.871360  s :     0.871360
      pz      :     0.015245  p :     0.022562
      px      :     0.004294
      py      :     0.003023

 15 H s       :     0.842209  s :     0.842209
      pz      :     0.005298  p :     0.023710
      px      :     0.011648
      py      :     0.006765

 16 C s       :     3.167731  s :     3.167731
      pz      :     1.029289  p :     3.014355
      px      :     1.034785
      py      :     0.950281
      dz2     :     0.019198  d :     0.091638
      dxz     :     0.007924
      dyz     :     0.020394
      dx2y2   :     0.023272
      dxy     :     0.020851

 17 H s       :     0.858927  s :     0.858927
      pz      :     0.006154  p :     0.023871
      px      :     0.003935
      py      :     0.013782

 18 H s       :     0.874089  s :     0.874089
      pz      :     0.014924  p :     0.023302
      px      :     0.003780
      py      :     0.004598

 19 C s       :     3.279182  s :     3.279182
      pz      :     1.015433  p :     2.493703
      px      :     0.721220
      py      :     0.757051
      dz2     :     0.015469  d :     0.129028
      dxz     :     0.021529
      dyz     :     0.021185
      dx2y2   :     0.025364
      dxy     :     0.045481

 20 H s       :     0.863960  s :     0.863960
      pz      :     0.015252  p :     0.023371
      px      :     0.004347
      py      :     0.003773

 21 H s       :     0.849096  s :     0.849096
      pz      :     0.005311  p :     0.024143
      px      :     0.013252
      py      :     0.005580

 22 C s       :     3.498033  s :     3.498033
      pz      :     0.977197  p :     2.957966
      px      :     1.038475
      py      :     0.942294
      dz2     :     0.007113  d :     0.097233
      dxz     :     0.028278
      dyz     :     0.007416
      dx2y2   :     0.032756
      dxy     :     0.021670

 23 C s       :     3.168670  s :     3.168670
      pz      :     0.904434  p :     2.547971
      px      :     0.740724
      py      :     0.902813
      dz2     :     0.013880  d :     0.189409
      dxz     :     0.039381
      dyz     :     0.030431
      dx2y2   :     0.058816
      dxy     :     0.046901

 24 C s       :     3.010065  s :     3.010065
      pz      :     0.950029  p :     2.422969
      px      :     0.670660
      py      :     0.802281
      dz2     :     0.013263  d :     0.141955
      dxz     :     0.027448
      dyz     :     0.020650
      dx2y2   :     0.049658
      dxy     :     0.030937

 25 O s       :     3.820366  s :     3.820366
      pz      :     1.663910  p :     4.504169
      px      :     1.230850
      py      :     1.609408
      dz2     :     0.005654  d :     0.045214
      dxz     :     0.009411
      dyz     :     0.004289
      dx2y2   :     0.007797
      dxy     :     0.018063

 26 C s       :     2.921893  s :     2.921893
      pz      :     0.816976  p :     2.404015
      px      :     0.665967
      py      :     0.921072
      dz2     :     0.016146  d :     0.252377
      dxz     :     0.046209
      dyz     :     0.036406
      dx2y2   :     0.097998
      dxy     :     0.055617

 27 C s       :     3.301228  s :     3.301228
      pz      :     0.917461  p :     2.890452
      px      :     1.007601
      py      :     0.965390
      dz2     :     0.006916  d :     0.095814
      dxz     :     0.030816
      dyz     :     0.006323
      dx2y2   :     0.028477
      dxy     :     0.023283

 28 C s       :     3.127445  s :     3.127445
      pz      :     1.073526  p :     2.570821
      px      :     0.738223
      py      :     0.759072
      dz2     :     0.011425  d :     0.126921
      dxz     :     0.024153
      dyz     :     0.015288
      dx2y2   :     0.047760
      dxy     :     0.028295

 29 O s       :     3.877467  s :     3.877467
      pz      :     1.491828  p :     4.663635
      px      :     1.524081
      py      :     1.647726
      dz2     :     0.004345  d :     0.032836
      dxz     :     0.007945
      dyz     :     0.003848
      dx2y2   :     0.007240
      dxy     :     0.009458

 30 C s       :     3.163632  s :     3.163632
      pz      :     0.847649  p :     2.540187
      px      :     0.802017
      py      :     0.890521
      dz2     :     0.020562  d :     0.149977
      dxz     :     0.035311
      dyz     :     0.022105
      dx2y2   :     0.031831
      dxy     :     0.040167

 31 C s       :     3.206051  s :     3.206051
      pz      :     0.943843  p :     2.901859
      px      :     0.978463
      py      :     0.979553
      dz2     :     0.009802  d :     0.088078
      dxz     :     0.021137
      dyz     :     0.009185
      dx2y2   :     0.025228
      dxy     :     0.022725

 32 C s       :     3.176232  s :     3.176232
      pz      :     0.928686  p :     2.758276
      px      :     0.923016
      py      :     0.906574
      dz2     :     0.011273  d :     0.099166
      dxz     :     0.020089
      dyz     :     0.016930
      dx2y2   :     0.032329
      dxy     :     0.018545

 33 N s       :     3.578875  s :     3.578875
      pz      :     1.296496  p :     3.846995
      px      :     1.112805
      py      :     1.437694
      dz2     :     0.011279  d :     0.074846
      dxz     :     0.019030
      dyz     :     0.007932
      dx2y2   :     0.014929
      dxy     :     0.021676

 34 C s       :     3.125057  s :     3.125057
      pz      :     0.893144  p :     2.715801
      px      :     0.885917
      py      :     0.936739
      dz2     :     0.020682  d :     0.095545
      dxz     :     0.015734
      dyz     :     0.013760
      dx2y2   :     0.017445
      dxy     :     0.027925

 35 C s       :     3.148566  s :     3.148566
      pz      :     0.956794  p :     2.843011
      px      :     0.958607
      py      :     0.927610
      dz2     :     0.010788  d :     0.081631
      dxz     :     0.015760
      dyz     :     0.014791
      dx2y2   :     0.023545
      dxy     :     0.016747

 36 H s       :     0.855840  s :     0.855840
      pz      :     0.008376  p :     0.025696
      px      :     0.012753
      py      :     0.004566

 37 H s       :     0.858779  s :     0.858779
      pz      :     0.007787  p :     0.026158
      px      :     0.013830
      py      :     0.004540

 38 H s       :     0.851820  s :     0.851820
      pz      :     0.004144  p :     0.024983
      px      :     0.011996
      py      :     0.008842

 39 H s       :     0.842026  s :     0.842026
      pz      :     0.009200  p :     0.027999
      px      :     0.003931
      py      :     0.014869

 40 H s       :     0.882597  s :     0.882597
      pz      :     0.006365  p :     0.026148
      px      :     0.003531
      py      :     0.016252

 41 H s       :     0.838222  s :     0.838222
      pz      :     0.005592  p :     0.027173
      px      :     0.004061
      py      :     0.017520



                     *******************************
                     * LOEWDIN POPULATION ANALYSIS *
                     *******************************

----------------------
LOEWDIN ATOMIC CHARGES
----------------------
   0 C :   -0.189253
   1 C :   -0.217397
   2 C :   -0.186882
   3 H :    0.129614
   4 H :    0.131709
   5 C :   -0.107729
   6 H :    0.136727
   7 H :    0.137990
   8 C :   -0.063722
   9 N :    0.127039
  10 H :    0.125911
  11 H :    0.130298
  12 C :   -0.187812
  13 C :   -0.216325
  14 H :    0.126473
  15 H :    0.130758
  16 C :   -0.188881
  17 H :    0.131908
  18 H :    0.129988
  19 C :   -0.088779
  20 H :    0.138500
  21 H :    0.135668
  22 C :   -0.063482
  23 C :   -0.091482
  24 C :   -0.132098
  25 O :    0.208374
  26 C :   -0.236749
  27 C :   -0.001167
  28 C :   -0.108219
  29 O :   -0.078902
  30 C :   -0.102543
  31 C :   -0.074764
  32 C :   -0.128935
  33 N :   -0.001746
  34 C :   -0.169954
  35 C :   -0.137245
  36 H :    0.133425
  37 H :    0.143305
  38 H :    0.130374
  39 H :    0.144503
  40 H :    0.148981
  41 H :    0.152523

-------------------------------
LOEWDIN REDUCED ORBITAL CHARGES
-------------------------------
  0 C s       :     2.781395  s :     2.781395
      pz      :     1.049598  p :     2.964703
      px      :     0.887967
      py      :     1.027138
      dz2     :     0.080937  d :     0.443155
      dxz     :     0.107857
      dyz     :     0.069815
      dx2y2   :     0.068186
      dxy     :     0.116360

  1 C s       :     2.780434  s :     2.780434
      pz      :     1.026595  p :     3.070575
      px      :     1.021733
      py      :     1.022247
      dz2     :     0.086728  d :     0.366388
      dxz     :     0.038611
      dyz     :     0.088916
      dx2y2   :     0.079328
      dxy     :     0.072804

  2 C s       :     2.768603  s :     2.768603
      pz      :     1.035690  p :     3.049037
      px      :     0.998705
      py      :     1.014642
      dz2     :     0.040818  d :     0.369242
      dxz     :     0.070380
      dyz     :     0.089271
      dx2y2   :     0.087109
      dxy     :     0.081664

  3 H s       :     0.812083  s :     0.812083
      pz      :     0.029235  p :     0.058303
      px      :     0.014002
      py      :     0.015066

  4 H s       :     0.809492  s :     0.809492
      pz      :     0.012168  p :     0.058799
      px      :     0.031379
      py      :     0.015251

  5 C s       :     2.719896  s :     2.719896
      pz      :     0.901805  p :     2.906467
      px      :     1.010779
      py      :     0.993882
      dz2     :     0.038068  d :     0.481366
      dxz     :     0.078417
      dyz     :     0.067431
      dx2y2   :     0.154170
      dxy     :     0.143280

  6 H s       :     0.804858  s :     0.804858
      pz      :     0.023965  p :     0.058416
      px      :     0.011648
      py      :     0.022802

  7 H s       :     0.803997  s :     0.803997
      pz      :     0.027047  p :     0.058012
      px      :     0.014543
      py      :     0.016422

  8 C s       :     2.704274  s :     2.704274
      pz      :     0.859166  p :     2.763898
      px      :     0.937025
      py      :     0.967707
      dz2     :     0.048728  d :     0.595550
      dxz     :     0.121910
      dyz     :     0.088255
      dx2y2   :     0.162301
      dxy     :     0.174357

  9 N s       :     2.910955  s :     2.910955
      pz      :     1.363251  p :     3.687009
      px      :     1.151197
      py      :     1.172560
      dz2     :     0.024893  d :     0.274997
      dxz     :     0.043962
      dyz     :     0.036622
      dx2y2   :     0.086482
      dxy     :     0.083038

 10 H s       :     0.816543  s :     0.816543
      pz      :     0.029633  p :     0.057546
      px      :     0.012899
      py      :     0.015014

 11 H s       :     0.811048  s :     0.811048
      pz      :     0.014925  p :     0.058653
      px      :     0.017819
      py      :     0.025909

 12 C s       :     2.780870  s :     2.780870
      pz      :     1.025161  p :     2.965088
      px      :     1.045973
      py      :     0.893955
      dz2     :     0.114922  d :     0.441854
      dxz     :     0.046682
      dyz     :     0.081912
      dx2y2   :     0.096989
      dxy     :     0.101349

 13 C s       :     2.779759  s :     2.779759
      pz      :     1.038247  p :     3.069771
      px      :     1.017025
      py      :     1.014499
      dz2     :     0.084139  d :     0.366795
      dxz     :     0.060743
      dyz     :     0.046450
      dx2y2   :     0.102630
      dxy     :     0.072834

 14 H s       :     0.815969  s :     0.815969
      pz      :     0.036044  p :     0.057558
      px      :     0.012338
      py      :     0.009176

 15 H s       :     0.810475  s :     0.810475
      pz      :     0.015087  p :     0.058767
      px      :     0.027432
      py      :     0.016248

 16 C s       :     2.766850  s :     2.766850
      pz      :     1.032908  p :     3.050722
      px      :     1.024497
      py      :     0.993317
      dz2     :     0.091699  d :     0.371309
      dxz     :     0.036622
      dyz     :     0.061595
      dx2y2   :     0.095480
      dxy     :     0.085913

 17 H s       :     0.809336  s :     0.809336
      pz      :     0.016991  p :     0.058757
      px      :     0.011989
      py      :     0.029777

 18 H s       :     0.811724  s :     0.811724
      pz      :     0.034270  p :     0.058289
      px      :     0.011753
      py      :     0.012266

 19 C s       :     2.714563  s :     2.714563
      pz      :     0.935854  p :     2.913919
      px      :     0.992583
      py      :     0.985482
      dz2     :     0.044393  d :     0.460298
      dxz     :     0.069748
      dyz     :     0.067276
      dx2y2   :     0.131290
      dxy     :     0.147590

 20 H s       :     0.803448  s :     0.803448
      pz      :     0.034436  p :     0.058052
      px      :     0.012276
      py      :     0.011341

 21 H s       :     0.804893  s :     0.804893
      pz      :     0.015231  p :     0.059439
      px      :     0.029869
      py      :     0.014339

 22 C s       :     2.762541  s :     2.762541
      pz      :     0.905719  p :     2.924914
      px      :     1.028023
      py      :     0.991173
      dz2     :     0.024352  d :     0.376026
      dxz     :     0.087213
      dyz     :     0.026800
      dx2y2   :     0.142615
      dxy     :     0.095046

 23 C s       :     2.711615  s :     2.711615
      pz      :     0.884113  p :     2.742227
      px      :     0.851522
      py      :     1.006592
      dz2     :     0.058037  d :     0.637640
      dxz     :     0.124117
      dyz     :     0.087202
      dx2y2   :     0.172820
      dxy     :     0.195463

 24 C s       :     2.703840  s :     2.703840
      pz      :     0.928501  p :     2.932088
      px      :     1.006504
      py      :     0.997083
      dz2     :     0.045609  d :     0.496169
      dxz     :     0.079379
      dyz     :     0.067859
      dx2y2   :     0.157516
      dxy     :     0.145806

 25 O s       :     3.283664  s :     3.283664
      pz      :     1.566527  p :     4.406943
      px      :     1.273311
      py      :     1.567105
      dz2     :     0.011939  d :     0.101018
      dxz     :     0.022553
      dyz     :     0.005851
      dx2y2   :     0.024592
      dxy     :     0.036083

 26 C s       :     2.748918  s :     2.748918
      pz      :     0.804855  p :     2.621961
      px      :     0.843977
      py      :     0.973129
      dz2     :     0.080780  d :     0.865869
      dxz     :     0.148681
      dyz     :     0.105532
      dx2y2   :     0.270874
      dxy     :     0.260003

 27 C s       :     2.775629  s :     2.775629
      pz      :     0.834335  p :     2.859781
      px      :     1.025727
      py      :     0.999719
      dz2     :     0.024225  d :     0.365757
      dxz     :     0.088830
      dyz     :     0.023468
      dx2y2   :     0.134306
      dxy     :     0.094928

 28 C s       :     2.717882  s :     2.717882
      pz      :     0.951206  p :     2.936054
      px      :     1.004069
      py      :     0.980779
      dz2     :     0.036430  d :     0.454283
      dxz     :     0.077096
      dyz     :     0.055567
      dx2y2   :     0.155204
      dxy     :     0.129986

 29 O s       :     3.441281  s :     3.441281
      pz      :     1.431195  p :     4.572029
      px      :     1.546422
      py      :     1.594412
      dz2     :     0.008135  d :     0.065591
      dxz     :     0.013412
      dyz     :     0.006562
      dx2y2   :     0.015934
      dxy     :     0.021548

 30 C s       :     2.720019  s :     2.720019
      pz      :     0.933785  p :     2.892226
      px      :     0.992371
      py      :     0.966070
      dz2     :     0.064760  d :     0.490298
      dxz     :     0.103487
      dyz     :     0.074971
      dx2y2   :     0.124366
      dxy     :     0.122714

 31 C s       :     2.776909  s :     2.776909
      pz      :     0.918066  p :     2.931258
      px      :     1.033006
      py      :     0.980186
      dz2     :     0.035754  d :     0.366597
      dxz     :     0.076732
      dyz     :     0.055612
      dx2y2   :     0.112032
      dxy     :     0.086466

 32 C s       :     2.781900  s :     2.781900
      pz      :     0.935999  p :     2.881216
      px      :     0.967959
      py      :     0.977259
      dz2     :     0.046899  d :     0.465819
      dxz     :     0.096610
      dyz     :     0.068988
      dx2y2   :     0.133689
      dxy     :     0.119632

 33 N s       :     3.078600  s :     3.078600
      pz      :     1.205124  p :     3.708679
      px      :     1.169710
      py      :     1.333845
      dz2     :     0.025112  d :     0.214467
      dxz     :     0.054737
      dyz     :     0.017767
      dx2y2   :     0.056720
      dxy     :     0.060132

 34 C s       :     2.791663  s :     2.791663
      pz      :     0.942976  p :     2.908976
      px      :     0.963685
      py      :     1.002315
      dz2     :     0.080317  d :     0.469315
      dxz     :     0.084961
      dyz     :     0.068494
      dx2y2   :     0.087194
      dxy     :     0.148350

 35 C s       :     2.783385  s :     2.783385
      pz      :     0.953795  p :     2.988077
      px      :     1.012471
      py      :     1.021810
      dz2     :     0.040333  d :     0.365784
      dxz     :     0.070841
      dyz     :     0.061353
      dx2y2   :     0.107919
      dxy     :     0.085338

 36 H s       :     0.805457  s :     0.805457
      pz      :     0.019780  p :     0.061118
      px      :     0.028665
      py      :     0.012673

 37 H s       :     0.795525  s :     0.795525
      pz      :     0.018358  p :     0.061170
      px      :     0.029724
      py      :     0.013088

 38 H s       :     0.809671  s :     0.809671
      pz      :     0.011911  p :     0.059955
      px      :     0.026880
      py      :     0.021163

 39 H s       :     0.789152  s :     0.789152
      pz      :     0.021456  p :     0.066345
      px      :     0.012165
      py      :     0.032724

 40 H s       :     0.790136  s :     0.790136
      pz      :     0.015704  p :     0.060883
      px      :     0.010940
      py      :     0.034239

 41 H s       :     0.784161  s :     0.784161
      pz      :     0.013765  p :     0.063316
      px      :     0.011808
      py      :     0.037744



                      *****************************
                      * MAYER POPULATION ANALYSIS *
                      *****************************

  NA   - Mulliken gross atomic population
  ZA   - Total nuclear charge
  QA   - Mulliken gross atomic charge
  VA   - Mayer's total valence
  BVA  - Mayer's bonded valence
  FA   - Mayer's free valence

  ATOM       NA         ZA         QA         VA         BVA        FA
  0 C      6.1127     6.0000    -0.1127     3.9100     3.9100    -0.0000
  1 C      6.1628     6.0000    -0.1628     3.9537     3.9537     0.0000
  2 C      6.2325     6.0000    -0.2325     3.9175     3.9175     0.0000
  3 H      0.8978     1.0000     0.1022     0.9672     0.9672     0.0000
  4 H      0.8826     1.0000     0.1174     0.9587     0.9587    -0.0000
  5 C      5.7594     6.0000     0.2406     3.6760     3.6760    -0.0000
  6 H      0.8731     1.0000     0.1269     0.9526     0.9526     0.0000
  7 H      0.8884     1.0000     0.1116     0.9544     0.9544     0.0000
  8 C      5.9993     6.0000     0.0007     4.0860     4.0860    -0.0000
  9 N      7.1378     7.0000    -0.1378     3.3348     3.3348    -0.0000
 10 H      0.8942     1.0000     0.1058     0.9532     0.9532     0.0000
 11 H      0.8677     1.0000     0.1323     0.9493     0.9493    -0.0000
 12 C      6.1140     6.0000    -0.1140     3.9060     3.9060     0.0000
 13 C      6.1514     6.0000    -0.1514     3.9523     3.9523     0.0000
 14 H      0.8939     1.0000     0.1061     0.9545     0.9545     0.0000
 15 H      0.8659     1.0000     0.1341     0.9489     0.9489     0.0000
 16 C      6.2737     6.0000    -0.2737     3.9520     3.9520     0.0000
 17 H      0.8828     1.0000     0.1172     0.9592     0.9592     0.0000
 18 H      0.8974     1.0000     0.1026     0.9662     0.9662    -0.0000
 19 C      5.9019     6.0000     0.0981     3.6566     3.6566     0.0000
 20 H      0.8873     1.0000     0.1127     0.9554     0.9554     0.0000
 21 H      0.8732     1.0000     0.1268     0.9568     0.9568     0.0000
 22 C      6.5532     6.0000    -0.5532     3.8255     3.8255    -0.0000
 23 C      5.9060     6.0000     0.0940     3.8851     3.8851    -0.0000
 24 C      5.5750     6.0000     0.4250     3.5846     3.5846    -0.0000
 25 O      8.3697     8.0000    -0.3697     2.1225     2.1225    -0.0000
 26 C      5.5783     6.0000     0.4217     4.2076     4.2076    -0.0000
 27 C      6.2875     6.0000    -0.2875     3.7563     3.7563    -0.0000
 28 C      5.8252     6.0000     0.1748     3.4383     3.4383    -0.0000
 29 O      8.5739     8.0000    -0.5739     1.9880     1.9880    -0.0000
 30 C      5.8538     6.0000     0.1462     3.7954     3.7954     0.0000
 31 C      6.1960     6.0000    -0.1960     3.9951     3.9951     0.0000
 32 C      6.0337     6.0000    -0.0337     4.0407     4.0407     0.0000
 33 N      7.5007     7.0000    -0.5007     3.0394     3.0394     0.0000
 34 C      5.9364     6.0000     0.0636     3.9929     3.9929    -0.0000
 35 C      6.0732     6.0000    -0.0732     3.9281     3.9281    -0.0000
 36 H      0.8815     1.0000     0.1185     0.9888     0.9888     0.0000
 37 H      0.8849     1.0000     0.1151     0.9687     0.9687    -0.0000
 38 H      0.8768     1.0000     0.1232     0.9747     0.9747    -0.0000
 39 H      0.8700     1.0000     0.1300     0.9984     0.9984    -0.0000
 40 H      0.9087     1.0000     0.0913     0.9891     0.9891    -0.0000
 41 H      0.8654     1.0000     0.1346     0.9808     0.9808    -0.0000

  Mayer bond orders larger than 0.100000
B(  0-C ,  1-C ) :   1.0030 B(  0-C ,  9-N ) :   0.9496 B(  0-C , 10-H ) :   0.9480 
B(  0-C , 11-H ) :   0.9506 B(  1-C ,  2-C ) :   1.0240 B(  1-C ,  3-H ) :   0.9679 
B(  1-C ,  4-H ) :   0.9603 B(  2-C ,  5-C ) :   0.9985 B(  2-C ,  6-H ) :   0.9551 
B(  2-C ,  7-H ) :   0.9462 B(  5-C ,  8-C ) :   1.2376 B(  5-C , 22-C ) :   1.3896 
B(  8-C ,  9-N ) :   1.3603 B(  8-C , 19-C ) :   1.2463 B(  9-N , 12-C ) :   0.9484 
B( 12-C , 13-C ) :   0.9988 B( 12-C , 14-H ) :   0.9482 B( 12-C , 15-H ) :   0.9518 
B( 13-C , 16-C ) :   1.0348 B( 13-C , 17-H ) :   0.9626 B( 13-C , 18-H ) :   0.9666 
B( 16-C , 19-C ) :   1.0354 B( 16-C , 20-H ) :   0.9541 B( 16-C , 21-H ) :   0.9475 
B( 19-C , 23-C ) :   1.3392 B( 22-C , 24-C ) :   1.0904 B( 22-C , 40-H ) :   1.0526 
B( 23-C , 24-C ) :   1.3387 B( 23-C , 25-O ) :   1.0207 B( 24-C , 27-C ) :   1.1767 
B( 25-O , 26-C ) :   1.0901 B( 26-C , 28-C ) :   1.1374 B( 26-C , 29-O ) :   1.8810 
B( 27-C , 28-C ) :   1.3570 B( 27-C , 41-H ) :   0.9636 B( 28-C , 30-C ) :   0.9924 
B( 30-C , 31-C ) :   1.3956 B( 30-C , 32-C ) :   1.3625 B( 31-C , 35-C ) :   1.4684 
B( 31-C , 39-H ) :   0.9562 B( 32-C , 33-N ) :   1.5348 B( 32-C , 36-H ) :   0.9674 
B( 33-N , 34-C ) :   1.4419 B( 34-C , 35-C ) :   1.4123 B( 34-C , 38-H ) :   0.9679 
B( 35-C , 37-H ) :   0.9657 

-------
TIMINGS
-------

Total SCF time: 0 days 0 hours 6 min 41 sec 

Total time                  ....     401.113 sec
Sum of individual times     ....     399.599 sec  ( 99.6%)

SCF preparation             ....       1.930 sec  (  0.5%)
Fock matrix formation       ....     391.582 sec  ( 97.6%)
  Startup                   ....       0.282 sec  (  0.1% of F)
  Split-RI-J                ....      32.095 sec  (  8.2% of F)
  Chain of spheres X        ....     284.186 sec  ( 72.6% of F)
  XC integration            ....      30.983 sec  (  7.9% of F)
    XC Preparation          ....       0.000 sec  (  0.0% of XC)
    Basis function eval.    ....       7.653 sec  ( 24.7% of XC)
    Density eval.           ....       8.779 sec  ( 28.3% of XC)
    XC-Functional eval.     ....       0.538 sec  (  1.7% of XC)
    XC-Potential eval.      ....       8.729 sec  ( 28.2% of XC)
  CPCM terms                ....      41.658 sec  ( 10.6% of F)
Diagonalization             ....       0.000 sec  (  0.0%)
Density matrix formation    ....       1.028 sec  (  0.3%)
Total Energy calculation    ....       0.128 sec  (  0.0%)
Population analysis         ....       0.131 sec  (  0.0%)
Orbital Transformation      ....       0.476 sec  (  0.1%)
Orbital Orthonormalization  ....       0.000 sec  (  0.0%)
DIIS solution               ....       2.692 sec  (  0.7%)
SOSCF solution              ....       1.597 sec  (  0.4%)
Finished LeanSCF after 401.2 sec

Maximum memory used throughout the entire LEANSCF-calculation: 169.5 MB

------------------------------------------------------------------------------
                         ORCA PROPERTY INTEGRAL CALCULATIONS
------------------------------------------------------------------------------

GBWName                                   ... NMU-1.gbw
Number of atoms                           ...     42
Number of basis functions                 ...    684
Max core memory                           ...   1024 MB

Dipole integrals                          ... YES
Quadrupole integrals                      ...  NO
Linear momentum integrals                 ... YES
Angular momentum integrals                ... YES
Higher moments length integrals           ...  NO
Higher moments velocity integrals         ...  NO
Kinetic energy integrals                  ...  NO
GIAO right hand sides                     ...  NO
GIAO dipole derivative integrals          ...  NO
SOC integrals                             ...  NO
EPR diamagnetic integrals (GIAO)          ...  NO
EPR gauge integrals                       ...  NO
Field gradient integrals                  ...  NO (   0 nuclei)
Spin-dipole/Fermi contact integrals       ...  NO (   0 nuclei)
Contact density integrals                 ...  NO (   0 nuclei)
Nucleus-orbit integrals                   ...  NO (   0 nuclei)
Geometric perturbations                   ...  NO (  42 nuclei)

Choice of electric origin   ... Center of mass
Position of electric origin ... ( -2.6954, -5.0979,  0.1087) 
Choice of magnetic origin   ... GIAO
Position of magnetic origin ... (  0.0000,  0.0000,  0.0000) 

Calculating integrals                     ... Electric Dipole (Length)     done (  0.1 sec)
Calculating integrals                     ... Linear Momentum              done (  0.2 sec)
Calculating integrals                     ... Angular Momentum  (ElOri)    done (  0.2 sec)

Property integrals calculated in   0.4 sec

Maximum memory used throughout the entire PROPINT-calculation: 91.6 MB
------------------------------------------------------------------------------
                        ORCA TD-DFT/TDA CALCULATION
------------------------------------------------------------------------------

Input orbitals are from        ... NMU-1.gbw
CI-vector output               ... NMU-1.cis
Solver                         ... FN-2001
Tamm-Dancoff approximation     ... operative
CIS-Integral strategy          ... AO-integrals
Integral handling              ... AO integral Direct
Max. core memory used          ... 512 MB
Reference state                ... RHF
Generation of triplets         ... off
Follow IRoot                   ... off
Number of operators            ... 1
Orbital ranges used for CIS calculation:
 Operator 0:  Orbitals  24... 83  to  84...683
XAS localization array:
 Operator 0:  Orbitals  -1... -1

-------------------
XC-INTEGRATION GRID
-------------------

General Integration Accuracy     IntAcc      ... 3.467
Radial Grid Type                 RadialGrid  ... OptM3 with GC (2021)
Angular Grid (max. ang.)         AngularGrid ... 1 (Lebedev-50)
Angular grid pruning method      GridPruning ... 4 (adaptive)
Weight generation scheme         WeightScheme... mBecke (2022)
Basis function cutoff            BFCut       ... 1.0000e-11
Integration weight cutoff        WCut        ... 1.0000e-14
Partially contracted basis set               ... off
Rotationally invariant grid construction     ... off
Angular grids for H and He will be reduced by one unit

Total number of grid points                  ...    29198
Total number of batches                      ...      475
Average number of points per batch           ...       61
Average number of grid points per atom       ...      695

---------------------
COSX-INTEGRATION GRID
---------------------

General Integration Accuracy     IntAcc      ... 3.067
Radial Grid Type                 RadialGrid  ... OptM3 with GC (2021)
Angular Grid (max. ang.)         AngularGrid ... 1 (Lebedev-50)
Angular grid pruning method      GridPruning ... 4 (adaptive)
Weight generation scheme         WeightScheme... mBecke (2022)
Basis function cutoff            BFCut       ... 1.0000e-11
Integration weight cutoff        WCut        ... 1.0000e-14
Partially contracted basis set               ... on
Rotationally invariant grid construction     ... off
Angular grids for H and He will be reduced by one unit

Total number of grid points                  ...    13515
Total number of batches                      ...      133
Average number of points per batch           ...      101
Average number of grid points per atom       ...      322

---------------
TD-DFT XC SETUP
---------------

DFT calculation                         ... on
Name of the grid file                   ... NMU-1.grid_cis.tmp
RI-approximation                        ... on
Aux-basis dimension                     ... 2094
Exchange functional (TD-DFT)            ... B88
   X-Alpha parameter    XAlpha (TD-DFT) ...  0.666667
   Becke's b parameter  XBeta (TD-DFT)  ...  0.004200
Correlation functional (TD-DFT)         ... LYP
 LDA part of GGA corr.  LDAOpt (TD-DFT) ... VWN-5
Hybrid DFT                              ... on
   Exchange mixing (TD-DFT)             ...  0.200
   GGA exch. scaling (TD-DFT)           ...  0.720
   GGA corr. scaling (TD-DFT)           ...  0.810

Building densities             ... done
Calculating rho(r) on the grid ... done
Building xc-kernel on the grid ... done
                    *** TD-DFT CALCULATION INITIALIZED ***

-----------------------------
    LR-CPCM (equilibrium)
-----------------------------

Setting up LR-CPCM             ... done

------------------------
DAVIDSON-DIAGONALIZATION
------------------------

Dimension of the eigenvalue problem            ...  36000
Number of roots to be determined               ...      1
Maximum size of the expansion space            ...     10
Maximum number of iterations                   ...    100
Convergence tolerance for the residual         ...    2.500e-07
Convergence tolerance for the energies         ...    2.500e-07
Orthogonality tolerance                        ...    1.000e-14
Level Shift                                    ...    0.000e+00
Constructing the preconditioner                ... o.k.
Building the initial guess                     ... o.k.
Number of trial vectors determined             ...     10


                       ****Iteration    0****
   Time for iteration     :  TOTAL=23.1 TRAFO=0.1 RIJ=3.5 COSX=8.9 XC=1.7
   Size of expansion space: 3
   Lowest Energy          :     0.117425391624
   Maximum Energy change  :     0.117425391624 (vector 0)
   Maximum residual norm  :     0.017884734911

                       ****Iteration    1****
   Time for iteration     :  TOTAL=18.3 TRAFO=0.0 RIJ=2.6 COSX=7.4 XC=0.5
   Size of expansion space: 4
   Lowest Energy          :     0.101097004862
   Maximum Energy change  :     0.016328386762 (vector 0)
   Maximum residual norm  :     0.000597629124

                       ****Iteration    2****
   Time for iteration     :  TOTAL=18.6 TRAFO=0.0 RIJ=2.7 COSX=7.5 XC=0.5
   Size of expansion space: 5
   Lowest Energy          :     0.100472054385
   Maximum Energy change  :     0.000624950478 (vector 0)
   Maximum residual norm  :     0.000058655879

                       ****Iteration    3****
   Time for iteration     :  TOTAL=18.2 TRAFO=0.0 RIJ=2.6 COSX=7.3 XC=0.5
   Size of expansion space: 6
   Lowest Energy          :     0.100377516171
   Maximum Energy change  :     0.000094538214 (vector 0)
   Maximum residual norm  :     0.000007168380

                       ****Iteration    4****
   Time for iteration     :  TOTAL=18.4 TRAFO=0.0 RIJ=2.6 COSX=7.4 XC=0.5
   Size of expansion space: 7
   Lowest Energy          :     0.100369802639
   Maximum Energy change  :     0.000007713532 (vector 0)
   Maximum residual norm  :     0.000000628681

                       ****Iteration    5****
   Time for iteration     :  TOTAL=18.6 TRAFO=0.0 RIJ=2.6 COSX=7.6 XC=0.5
   Size of expansion space: 8
   Lowest Energy          :     0.100369167950
   Maximum Energy change  :     0.000000634688 (vector 0)
   Maximum residual norm  :     0.000000074422

      *** CONVERGENCE OF RESIDUAL NORM REACHED ***

Storing the converged CI vectors               ... NMU-1.cis1

                 *** DAVIDSON DONE ***

Total time for solving the CIS problem:   115.969sec

------------------------------------
TD-DFT/TDA EXCITED STATES (SINGLETS)
------------------------------------

the weight of the individual excitations are printed if larger than 1.0e-02

STATE  1:  E=   0.100369 au      2.731 eV    22028.5 cm**-1 <S**2> =   0.000000 Mult 1
    83a ->  84a  :     0.970323 (c=  0.98504998)


-----------------------------
TD-DFT/TDA-EXCITATION SPECTRA
-----------------------------

Center of mass = ( -2.6954, -5.0979,  0.1087)
Generating CIS transition densities           ... done

----------------------------------------------------------------------------------------------------
                     ABSORPTION SPECTRUM VIA TRANSITION ELECTRIC DIPOLE MOMENTS    
----------------------------------------------------------------------------------------------------
     Transition      Energy     Energy  Wavelength fosc(D2)      D2        DX        DY        DZ   
                      (eV)      (cm-1)    (nm)                 (au**2)    (au)      (au)      (au)  
----------------------------------------------------------------------------------------------------
  0-1A  ->  1-1A    2.731184   22028.5   454.0   1.400886316  20.93601  -4.32020   1.50606  -0.06053

----------------------------------------------------------------------------------------------------
                     ABSORPTION SPECTRUM VIA TRANSITION VELOCITY DIPOLE MOMENTS    
----------------------------------------------------------------------------------------------------
     Transition      Energy     Energy  Wavelength fosc(P2)      P2        PX        PY        PZ   
                      (eV)      (cm-1)    (nm)                 (au**2)    (au)      (au)      (au)  
----------------------------------------------------------------------------------------------------
  0-1A  ->  1-1A    2.731184   22028.5   454.0   0.740967655   0.11156   0.30518  -0.13557  -0.00632

------------------------------------------------------------------------------------------
                     CD SPECTRUM VIA TRANSITION ELECTRIC DIPOLE MOMENTS    
------------------------------------------------------------------------------------------
     Transition      Energy     Energy  Wavelength    R        MX        MY        MZ   
                      (eV)      (cm-1)    (nm)   (1e40*cgs)   (au)      (au)      (au)  
------------------------------------------------------------------------------------------
  0-1A  ->  1-1A    2.731184   22028.5   454.0  -34.69494  -0.04465  -0.06854   0.26548

------------------------------------------------------------------------------------------
                     CD SPECTRUM VIA TRANSITION VELOCITY DIPOLE MOMENTS    
------------------------------------------------------------------------------------------
     Transition      Energy     Energy  Wavelength    R        MX        MY        MZ   
                      (eV)      (cm-1)    (nm)   (1e40*cgs)   (au)      (au)      (au)  
------------------------------------------------------------------------------------------
  0-1A  ->  1-1A    2.731184   22028.5   454.0  -28.23842  -0.04465  -0.06854   0.26548

Total run time:      117.647 sec

           *** ORCA-CIS/TD-DFT FINISHED WITHOUT ERROR ***
-----------------------
CIS/TD-DFT TOTAL ENERGY
-----------------------

    E(SCF)  =  -1032.697633338 Eh
    DE(CIS) =      0.100369168 Eh (Root  1)
    ----------------------------- ---------
    E(tot)  =  -1032.597264170 Eh


------------------------
TD-DFT GRADIENT XC SETUP
------------------------

Building densities                     ... done
Calculating rho(r) on the grid         ... done
Building xc-kernel on the grid         ... done
Building xc 3rd derivative on the grid ... done
                *** TD-DFT GRADIENT CALCULATION INITIALIZED ***

--------------------------
TD-DFT/TDA RELAXED DENSITY
--------------------------

Reference wavefunction             ... RHF
State of interest                  ... 1
Basis dimension                    ... 684
DFT-XC contribution needed         ... YES
RI-approximation                   ... YES
Do Coulomb                         ... YES
Do Exchange                        ... YES
Need Hartree-Fock Exchange         ... YES
facj, facx                         ...  2.000, -0.200
Conventional                       ... NO
Range separation                   ... NO
Triplet state                      ... NO
Spin Flip                          ... NO
CIS-vectors being read from        ... NMU-1.cis
 => Number of Vectors found: 1
 => Orbital Window: 24...83 -> 84...683

Reading the CIS file                     ... done
Norm of the CI vector                    ... 1.000000000
Reading the CPCM file                    ... done
Making the CIS (pseudo)densities         ... done
Making operators G(D) and Q(T)           ... (SHARK-ok)done
Transforming the Fock operators          ... done
Making the frozen-core relaxed density   ... done
Constructing the G(H) operator           ... (SHARK-ok)done
Transforming the G(H) operator           ... done
Calculating the CIS Lagrangian           ... done
Solving the Z-vector equations           ... 

Using XC Grid                  ... (NMU-1.grid_cpscf.tmp) 
Recalculating density on grid  ... (NMU-1.grho_cpscf0.tmp) done
Calculating the xc-kernel      ... (NMU-1.fxc_cpscf0.tmp) done

-------------------
SHARK CP-SCF DRIVER
-------------------

Dimension of the orbital basis          ...    684
Dimension of the CPSCF-problem          ...  50400
Number of operators                     ...      1
Max. number of iterations               ...    128
Convergence Tolerance                   ... 1.0e-04
Number of perturbations                 ...      1
Perturbation type                       ... REAL

----------------------------
POPLE LINEAR EQUATION SOLVER
----------------------------

  ITERATION   0:   ||err||_max =   1.9045e+00 (  19.3 sec)
  ITERATION   1:   ||err||_max =   1.0907e-01 (  18.8 sec)
  ITERATION   2:   ||err||_max =   2.2239e-02 (  18.2 sec)
  ITERATION   3:   ||err||_max =   8.2090e-03 (  19.1 sec)
  ITERATION   4:   ||err||_max =   3.6476e-03 (  19.1 sec)
  ITERATION   5:   ||err||_max =   1.3581e-03 (  18.6 sec)
  ITERATION   6:   ||err||_max =   3.6823e-04 (  20.2 sec)
  ITERATION   7:   ||err||_max =   1.2559e-04 (  18.6 sec)
  ITERATION   8:   ||err||_max =   4.9990e-05 (  18.3 sec)

Finalizing the relaxed density           ... done
Storing the relaxed density              ... done
Constructing the G(Z) operator           ... (SHARK-ok)done
Adding the CPCM contribution             ... done
Adding the XC terms                      ... done
Transforming the G(Z) operator           ... done
Making the W-matrix                      ... done
Finalizing the W-matrix                  ... done
Transforming the W-matrix                ... done
Nuc. rep. gradient        (SHARK) ... done (  0.0 sec)
HCore & Overlap gradient  (SHARK) ... done (  1.6 sec)
Split-RIJ-J gradient      (SHARK) ... done ( 11.4 sec)
COSX-gradient                     ... done ( 95.9 sec)
CPCM gradient                     ... done ( 10.6 sec)
Dispersion correction             ... done (  0.0 sec)

-------------------
DISPERSION GRADIENT
-------------------

   1   C   :   -0.000802124    0.000047866   -0.000050168
   2   C   :   -0.000632836   -0.000223352   -0.000352954
   3   C   :   -0.000454811   -0.000593894   -0.000231940
   4   H   :   -0.000259145   -0.000011039   -0.000420453
   5   H   :   -0.000323368   -0.000100820   -0.000153841
   6   C   :   -0.000133387   -0.000709235   -0.000190857
   7   H   :   -0.000137902   -0.000333630   -0.000192946
   8   H   :   -0.000246366   -0.000397255    0.000109691
   9   C   :   -0.000008635   -0.000089430    0.000035730
  10   N   :   -0.000558340    0.000360117    0.000103364
  11   H   :   -0.000439180   -0.000018606    0.000226923
  12   H   :   -0.000396066    0.000159189   -0.000061324
  13   C   :   -0.000337675    0.000693569    0.000242465
  14   C   :    0.000046576    0.000769800    0.000052902
  15   H   :   -0.000227119    0.000258473    0.000364288
  16   H   :   -0.000265187    0.000333300    0.000033033
  17   C   :    0.000275978    0.000703439    0.000243934
  18   H   :    0.000013603    0.000372239    0.000046523
  19   H   :    0.000046894    0.000434297   -0.000236301
  20   C   :    0.000314128    0.000360616    0.000191499
  21   H   :    0.000171961    0.000265506    0.000368225
  22   H   :    0.000221207    0.000357074    0.000023921
  23   C   :    0.000001248   -0.000733546   -0.000205482
  24   C   :    0.000298160    0.000034317    0.000084006
  25   C   :    0.000003354   -0.000430948   -0.000106345
  26   O   :    0.000391568    0.000323678    0.000167523
  27   C   :    0.000377917    0.000547311    0.000224516
  28   C   :   -0.000100344   -0.000453149   -0.000117244
  29   C   :    0.000049020    0.000101051    0.000054956
  30   O   :    0.000350876    0.000628788    0.000223464
  31   C   :    0.000253876   -0.000186261   -0.000036790
  32   C   :    0.000602611    0.000072136    0.000315952
  33   C   :    0.000104066   -0.000563059   -0.000390695
  34   N   :    0.000206259   -0.000530466   -0.000314651
  35   C   :    0.000468020   -0.000362695   -0.000078654
  36   C   :    0.000603776   -0.000106365    0.000170667
  37   H   :   -0.000096678   -0.000285885   -0.000269911
  38   H   :    0.000289434    0.000047312    0.000145696
  39   H   :    0.000237458   -0.000201165   -0.000050703
  40   H   :    0.000231574    0.000200223    0.000249813
  41   H   :   -0.000031181   -0.000394564   -0.000128682
  42   H   :   -0.000109220   -0.000344939   -0.000089150

Difference to translation invariance:
           :    0.0000000000    0.0000000000    0.0000000000

Difference to rotation invariance:
           :   -0.0000000000    0.0000000000    0.0000000000

Norm of the Dispersion gradient    ...    0.0036037303
RMS gradient                       ...    0.0003210458
MAX gradient                       ...    0.0008021242

                 ---------------------------
                 EXCITED STATE GRADIENT DONE
                 ---------------------------

------------------
CARTESIAN GRADIENT
------------------

   1   C   :   -0.000706820    0.000042530   -0.000040887
   2   C   :   -0.000582783   -0.000176988   -0.000393476
   3   C   :   -0.000458565   -0.000547754   -0.000174391
   4   H   :   -0.000306341   -0.000091151   -0.000244070
   5   H   :   -0.000140319   -0.000027388   -0.000137323
   6   C   :   -0.000085515   -0.000567695   -0.000140329
   7   H   :   -0.000140316   -0.000204033   -0.000054408
   8   H   :   -0.000183346   -0.000327495   -0.000053433
   9   C   :    0.000087754   -0.000302299    0.000031311
  10   N   :   -0.000657573    0.000409403    0.000130337
  11   H   :   -0.000385858    0.000021360    0.000075874
  12   H   :   -0.000311846    0.000001440    0.000013189
  13   C   :   -0.000305528    0.000642399    0.000177268
  14   C   :    0.000043383    0.000744768    0.000013988
  15   H   :   -0.000221138    0.000299148    0.000197768
  16   H   :   -0.000126770    0.000235362    0.000114379
  17   C   :    0.000245616    0.000680126    0.000279061
  18   H   :   -0.000008857    0.000179711   -0.000040993
  19   H   :    0.000046196    0.000397247   -0.000021792
  20   C   :    0.000271533    0.000338894    0.000166254
  21   H   :    0.000154653    0.000281791    0.000204140
  22   H   :    0.000049171    0.000268654    0.000121602
  23   C   :    0.000084054   -0.000655118   -0.000188827
  24   C   :    0.000304023   -0.000048010    0.000073866
  25   C   :   -0.000118968   -0.000440207   -0.000074402
  26   O   :    0.000523440    0.000177972    0.000102407
  27   C   :    0.000198659    0.000529245    0.000197965
  28   C   :   -0.000009024   -0.000465124   -0.000117118
  29   C   :    0.000088119    0.000188947    0.000096067
  30   O   :    0.000168980    0.000386127    0.000157980
  31   C   :    0.000243757   -0.000192888   -0.000030234
  32   C   :    0.000640420    0.000003833    0.000281162
  33   C   :    0.000196412   -0.000573265   -0.000253101
  34   N   :    0.000248818   -0.000248189   -0.000206664
  35   C   :    0.000304054   -0.000337600   -0.000035802
  36   C   :    0.000466269   -0.000095939    0.000066941
  37   H   :    0.000078699   -0.000225135   -0.000181601
  38   H   :    0.000107720    0.000035611    0.000072871
  39   H   :    0.000070329   -0.000083663   -0.000014965
  40   H   :    0.000228901    0.000032581    0.000148930
  41   H   :   -0.000008056   -0.000219121   -0.000074777
  42   H   :   -0.000118902   -0.000129293   -0.000077983

Difference to translation invariance:
           :   -0.0000255624   -0.0000612039    0.0001667793

Difference to rotation invariance:
           :   -0.0004960049   -0.0004007599    0.0008188229

Norm of the Cartesian gradient     ...    0.0031232945
RMS gradient                       ...    0.0002782452
MAX gradient                       ...    0.0007447684

------------------------------------------------------------------------------
                  RELAXED CIS/TDA DENSITY POPULATION ANALYSIS
                                   IROOT 1
------------------------------------------------------------------------------
------------------------------------------------------------------------------
                           ORCA POPULATION ANALYSIS
------------------------------------------------------------------------------
Input electron density              ... NMU-1.cispre.singlet.iroot1
BaseName (.gbw .S,...)              ... NMU-1

                    ********************************
                    * MULLIKEN POPULATION ANALYSIS *
                    ********************************

-----------------------
MULLIKEN ATOMIC CHARGES
-----------------------
   0 C :   -0.113285
   1 C :   -0.161980
   2 C :   -0.232150
   3 H :    0.108020
   4 H :    0.123371
   5 C :    0.264217
   6 H :    0.130356
   7 H :    0.117588
   8 C :   -0.011231
   9 N :   -0.093028
  10 H :    0.120021
  11 H :    0.144800
  12 C :   -0.113030
  13 C :   -0.153307
  14 H :    0.118568
  15 H :    0.145628
  16 C :   -0.267909
  17 H :    0.123751
  18 H :    0.109588
  19 C :    0.134170
  20 H :    0.122341
  21 H :    0.134474
  22 C :   -0.569291
  23 C :    0.069945
  24 C :    0.474923
  25 O :   -0.380303
  26 C :    0.407754
  27 C :   -0.414928
  28 C :    0.188634
  29 O :   -0.576792
  30 C :    0.151000
  31 C :   -0.205146
  32 C :   -0.050998
  33 N :   -0.500904
  34 C :    0.050003
  35 C :   -0.075619
  36 H :    0.115846
  37 H :    0.111687
  38 H :    0.119927
  39 H :    0.126239
  40 H :    0.089503
  41 H :    0.117545
Sum of atomic charges:   -0.0000000

--------------------------------
MULLIKEN REDUCED ORBITAL CHARGES
--------------------------------
  0 C s       :     3.159319  s :     3.159319
      pz      :     1.017880  p :     2.846618
      px      :     0.810517
      py      :     1.018221
      dz2     :     0.022262  d :     0.107349
      dxz     :     0.028719
      dyz     :     0.015480
      dx2y2   :     0.016545
      dxy     :     0.024342
  1 C s       :     3.115855  s :     3.115855
      pz      :     0.979528  p :     2.955519
      px      :     1.028128
      py      :     0.947862
      dz2     :     0.019726  d :     0.090606
      dxz     :     0.009780
      dyz     :     0.024817
      dx2y2   :     0.018533
      dxy     :     0.017750
  2 C s       :     3.141713  s :     3.141713
      pz      :     1.041054  p :     3.001115
      px      :     0.950184
      py      :     1.009876
      dz2     :     0.012150  d :     0.089322
      dxz     :     0.019080
      dyz     :     0.016243
      dx2y2   :     0.023016
      dxy     :     0.018834
  3 H s       :     0.868636  s :     0.868636
      pz      :     0.013247  p :     0.023345
      px      :     0.004827
      py      :     0.005270
  4 H s       :     0.852726  s :     0.852726
      pz      :     0.004498  p :     0.023903
      px      :     0.013967
      py      :     0.005438
  5 C s       :     3.064215  s :     3.064215
      pz      :     0.952304  p :     2.523647
      px      :     0.767781
      py      :     0.803562
      dz2     :     0.009848  d :     0.147920
      dxz     :     0.023922
      dyz     :     0.024697
      dx2y2   :     0.046839
      dxy     :     0.042615
  6 H s       :     0.845789  s :     0.845789
      pz      :     0.009588  p :     0.023855
      px      :     0.003961
      py      :     0.010306
  7 H s       :     0.859031  s :     0.859031
      pz      :     0.011125  p :     0.023382
      px      :     0.005283
      py      :     0.006974
  8 C s       :     3.017672  s :     3.017672
      pz      :     0.949195  p :     2.807819
      px      :     0.901115
      py      :     0.957509
      dz2     :     0.010017  d :     0.185740
      dxz     :     0.038213
      dyz     :     0.030186
      dx2y2   :     0.052559
      dxy     :     0.054765
  9 N s       :     3.385347  s :     3.385347
      pz      :     1.381491  p :     3.606468
      px      :     1.105110
      py      :     1.119867
      dz2     :     0.009383  d :     0.101214
      dxz     :     0.016505
      dyz     :     0.014405
      dx2y2   :     0.029714
      dxy     :     0.031208
 10 H s       :     0.857135  s :     0.857135
      pz      :     0.012444  p :     0.022844
      px      :     0.005110
      py      :     0.005290
 11 H s       :     0.831426  s :     0.831426
      pz      :     0.005165  p :     0.023774
      px      :     0.007958
      py      :     0.010651
 12 C s       :     3.158623  s :     3.158623
      pz      :     1.005245  p :     2.847348
      px      :     1.042896
      py      :     0.799208
      dz2     :     0.025240  d :     0.107059
      dxz     :     0.013451
      dyz     :     0.021196
      dx2y2   :     0.024058
      dxy     :     0.023115
 13 C s       :     3.110169  s :     3.110169
      pz      :     1.029938  p :     2.952383
      px      :     0.913587
      py      :     1.008857
      dz2     :     0.020363  d :     0.090756
      dxz     :     0.015916
      dyz     :     0.009109
      dx2y2   :     0.026021
      dxy     :     0.019347
 14 H s       :     0.858580  s :     0.858580
      pz      :     0.015531  p :     0.022852
      px      :     0.004341
      py      :     0.002979
 15 H s       :     0.830534  s :     0.830534
      pz      :     0.005287  p :     0.023838
      px      :     0.011727
      py      :     0.006824
 16 C s       :     3.164518  s :     3.164518
      pz      :     1.031469  p :     3.012852
      px      :     1.037046
      py      :     0.944336
      dz2     :     0.018735  d :     0.090539
      dxz     :     0.007986
      dyz     :     0.019545
      dx2y2   :     0.023319
      dxy     :     0.020954
 17 H s       :     0.852326  s :     0.852326
      pz      :     0.006179  p :     0.023923
      px      :     0.003862
      py      :     0.013882
 18 H s       :     0.867074  s :     0.867074
      pz      :     0.015016  p :     0.023337
      px      :     0.003734
      py      :     0.004588
 19 C s       :     3.278129  s :     3.278129
      pz      :     0.951711  p :     2.453872
      px      :     0.736982
      py      :     0.765179
      dz2     :     0.015446  d :     0.133828
      dxz     :     0.024410
      dyz     :     0.021308
      dx2y2   :     0.026217
      dxy     :     0.046448
 20 H s       :     0.854168  s :     0.854168
      pz      :     0.015390  p :     0.023492
      px      :     0.004367
      py      :     0.003735
 21 H s       :     0.841295  s :     0.841295
      pz      :     0.005303  p :     0.024231
      px      :     0.013376
      py      :     0.005552
 22 C s       :     3.505014  s :     3.505014
      pz      :     1.002944  p :     2.971658
      px      :     1.030399
      py      :     0.938315
      dz2     :     0.007156  d :     0.092619
      dxz     :     0.024383
      dyz     :     0.007375
      dx2y2   :     0.032188
      dxy     :     0.021518
 23 C s       :     3.171293  s :     3.171293
      pz      :     0.935304  p :     2.571662
      px      :     0.739911
      py      :     0.896448
      dz2     :     0.014169  d :     0.187101
      dxz     :     0.037957
      dyz     :     0.028784
      dx2y2   :     0.058409
      dxy     :     0.047782
 24 C s       :     3.001034  s :     3.001034
      pz      :     0.874481  p :     2.372437
      px      :     0.697089
      py      :     0.800866
      dz2     :     0.012968  d :     0.151606
      dxz     :     0.034478
      dyz     :     0.023122
      dx2y2   :     0.050821
      dxy     :     0.030217
 25 O s       :     3.819489  s :     3.819489
      pz      :     1.678484  p :     4.515988
      px      :     1.227188
      py      :     1.610316
      dz2     :     0.005668  d :     0.044827
      dxz     :     0.009189
      dyz     :     0.004312
      dx2y2   :     0.007710
      dxy     :     0.017948
 26 C s       :     2.914791  s :     2.914791
      pz      :     0.839276  p :     2.427800
      px      :     0.663627
      py      :     0.924896
      dz2     :     0.015883  d :     0.249655
      dxz     :     0.044865
      dyz     :     0.037894
      dx2y2   :     0.096295
      dxy     :     0.054718
 27 C s       :     3.315259  s :     3.315259
      pz      :     1.085517  p :     3.013154
      px      :     0.975518
      py      :     0.952119
      dz2     :     0.007673  d :     0.086515
      dxz     :     0.023461
      dyz     :     0.007502
      dx2y2   :     0.025671
      dxy     :     0.022207
 28 C s       :     3.128305  s :     3.128305
      pz      :     1.036674  p :     2.547736
      px      :     0.747138
      py      :     0.763924
      dz2     :     0.013383  d :     0.135325
      dxz     :     0.028022
      dyz     :     0.016861
      dx2y2   :     0.047764
      dxy     :     0.029295
 29 O s       :     3.875201  s :     3.875201
      pz      :     1.490821  p :     4.668762
      px      :     1.527562
      py      :     1.650379
      dz2     :     0.004359  d :     0.032828
      dxz     :     0.007944
      dyz     :     0.003916
      dx2y2   :     0.007194
      dxy     :     0.009416
 30 C s       :     3.159275  s :     3.159275
      pz      :     0.849167  p :     2.540000
      px      :     0.797251
      py      :     0.893581
      dz2     :     0.020392  d :     0.149725
      dxz     :     0.035156
      dyz     :     0.022798
      dx2y2   :     0.031732
      dxy     :     0.039647
 31 C s       :     3.213847  s :     3.213847
      pz      :     0.948543  p :     2.901358
      px      :     0.976163
      py      :     0.976652
      dz2     :     0.010142  d :     0.089941
      dxz     :     0.021580
      dyz     :     0.009284
      dx2y2   :     0.025762
      dxy     :     0.023174
 32 C s       :     3.181563  s :     3.181563
      pz      :     0.928458  p :     2.769781
      px      :     0.927111
      py      :     0.914212
      dz2     :     0.011237  d :     0.099653
      dxz     :     0.020215
      dyz     :     0.016779
      dx2y2   :     0.032235
      dxy     :     0.019187
 33 N s       :     3.575553  s :     3.575553
      pz      :     1.298481  p :     3.849713
      px      :     1.113124
      py      :     1.438108
      dz2     :     0.011345  d :     0.075638
      dxz     :     0.019300
      dyz     :     0.007935
      dx2y2   :     0.015232
      dxy     :     0.021826
 34 C s       :     3.126219  s :     3.126219
      pz      :     0.902332  p :     2.728727
      px      :     0.885330
      py      :     0.941065
      dz2     :     0.020620  d :     0.095051
      dxz     :     0.015807
      dyz     :     0.013677
      dx2y2   :     0.017313
      dxy     :     0.027635
 35 C s       :     3.145830  s :     3.145830
      pz      :     0.960530  p :     2.847759
      px      :     0.957911
      py      :     0.929318
      dz2     :     0.011219  d :     0.082030
      dxz     :     0.015712
      dyz     :     0.014893
      dx2y2   :     0.023631
      dxy     :     0.016576
 36 H s       :     0.858182  s :     0.858182
      pz      :     0.008499  p :     0.025972
      px      :     0.012791
      py      :     0.004682
 37 H s       :     0.862121  s :     0.862121
      pz      :     0.007843  p :     0.026192
      px      :     0.013767
      py      :     0.004581
 38 H s       :     0.854900  s :     0.854900
      pz      :     0.004334  p :     0.025172
      px      :     0.011945
      py      :     0.008893
 39 H s       :     0.845708  s :     0.845708
      pz      :     0.009243  p :     0.028052
      px      :     0.003936
      py      :     0.014873
 40 H s       :     0.884170  s :     0.884170
      pz      :     0.006601  p :     0.026327
      px      :     0.003476
      py      :     0.016250
 41 H s       :     0.854155  s :     0.854155
      pz      :     0.007427  p :     0.028300
      px      :     0.003912
      py      :     0.016961


                     *******************************
                     * LOEWDIN POPULATION ANALYSIS *
                     *******************************

----------------------
LOEWDIN ATOMIC CHARGES
----------------------
   0 C :   -0.177969
   1 C :   -0.213329
   2 C :   -0.183412
   3 H :    0.131951
   4 H :    0.134484
   5 C :   -0.098426
   6 H :    0.138585
   7 H :    0.141333
   8 C :   -0.059852
   9 N :    0.172152
  10 H :    0.135505
  11 H :    0.136395
  12 C :   -0.177731
  13 C :   -0.211853
  14 H :    0.135086
  15 H :    0.136222
  16 C :   -0.182320
  17 H :    0.135061
  18 H :    0.132544
  19 C :   -0.059655
  20 H :    0.144313
  21 H :    0.139508
  22 C :   -0.070681
  23 C :   -0.101747
  24 C :   -0.107775
  25 O :    0.195845
  26 C :   -0.254662
  27 C :   -0.094229
  28 C :   -0.107039
  29 O :   -0.083577
  30 C :   -0.109431
  31 C :   -0.077596
  32 C :   -0.138681
  33 N :   -0.004452
  34 C :   -0.183020
  35 C :   -0.145780
  36 H :    0.131506
  37 H :    0.141748
  38 H :    0.128377
  39 H :    0.143338
  40 H :    0.148211
  41 H :    0.141054

-------------------------------
LOEWDIN REDUCED ORBITAL CHARGES
-------------------------------
  0 C s       :     2.782569  s :     2.782569
      pz      :     1.049737  p :     2.959780
      px      :     0.880654
      py      :     1.029389
      dz2     :     0.081824  d :     0.435620
      dxz     :     0.100219
      dyz     :     0.069407
      dx2y2   :     0.068870
      dxy     :     0.115299
  1 C s       :     2.780575  s :     2.780575
      pz      :     1.025230  p :     3.067549
      px      :     1.023352
      py      :     1.018967
      dz2     :     0.086183  d :     0.365204
      dxz     :     0.038178
      dyz     :     0.089435
      dx2y2   :     0.079438
      dxy     :     0.071971
  2 C s       :     2.768642  s :     2.768642
      pz      :     1.035693  p :     3.047143
      px      :     0.996866
      py      :     1.014585
      dz2     :     0.041070  d :     0.367627
      dxz     :     0.068697
      dyz     :     0.089076
      dx2y2   :     0.087163
      dxy     :     0.081621
  3 H s       :     0.809566  s :     0.809566
      pz      :     0.029507  p :     0.058483
      px      :     0.014006
      py      :     0.014970
  4 H s       :     0.806524  s :     0.806524
      pz      :     0.012125  p :     0.058992
      px      :     0.031659
      py      :     0.015207
  5 C s       :     2.721178  s :     2.721178
      pz      :     0.882222  p :     2.888179
      px      :     1.013728
      py      :     0.992228
      dz2     :     0.038687  d :     0.489070
      dxz     :     0.080902
      dyz     :     0.071673
      dx2y2   :     0.155779
      dxy     :     0.142029
  6 H s       :     0.802805  s :     0.802805
      pz      :     0.024128  p :     0.058610
      px      :     0.011567
      py      :     0.022915
  7 H s       :     0.800415  s :     0.800415
      pz      :     0.027188  p :     0.058252
      px      :     0.014521
      py      :     0.016543
  8 C s       :     2.703167  s :     2.703167
      pz      :     0.876692  p :     2.776211
      px      :     0.931827
      py      :     0.967691
      dz2     :     0.050250  d :     0.580475
      dxz     :     0.106245
      dyz     :     0.086649
      dx2y2   :     0.161083
      dxy     :     0.176248
  9 N s       :     2.918454  s :     2.918454
      pz      :     1.292079  p :     3.629368
      px      :     1.162256
      py      :     1.175034
      dz2     :     0.025067  d :     0.280026
      dxz     :     0.046260
      dyz     :     0.038117
      dx2y2   :     0.086980
      dxy     :     0.083602
 10 H s       :     0.805995  s :     0.805995
      pz      :     0.030211  p :     0.058500
      px      :     0.013034
      py      :     0.015254
 11 H s       :     0.804424  s :     0.804424
      pz      :     0.014967  p :     0.059181
      px      :     0.018032
      py      :     0.026182
 12 C s       :     2.781989  s :     2.781989
      pz      :     1.022674  p :     2.960114
      px      :     1.050010
      py      :     0.887430
      dz2     :     0.110321  d :     0.435628
      dxz     :     0.046909
      dyz     :     0.079862
      dx2y2   :     0.097816
      dxy     :     0.100720
 13 C s       :     2.780159  s :     2.780159
      pz      :     1.040145  p :     3.066232
      px      :     1.011052
      py      :     1.015035
      dz2     :     0.083912  d :     0.365462
      dxz     :     0.060429
      dyz     :     0.046254
      dx2y2   :     0.102049
      dxy     :     0.072818
 14 H s       :     0.806364  s :     0.806364
      pz      :     0.037093  p :     0.058549
      px      :     0.012413
      py      :     0.009043
 15 H s       :     0.804517  s :     0.804517
      pz      :     0.015048  p :     0.059261
      px      :     0.027822
      py      :     0.016391
 16 C s       :     2.767040  s :     2.767040
      pz      :     1.032364  p :     3.048575
      px      :     1.026174
      py      :     0.990036
      dz2     :     0.089410  d :     0.366705
      dxz     :     0.036603
      dyz     :     0.059272
      dx2y2   :     0.095585
      dxy     :     0.085835
 17 H s       :     0.805953  s :     0.805953
      pz      :     0.017069  p :     0.058985
      px      :     0.011797
      py      :     0.030119
 18 H s       :     0.808933  s :     0.808933
      pz      :     0.034659  p :     0.058522
      px      :     0.011578
      py      :     0.012285
 19 C s       :     2.718307  s :     2.718307
      pz      :     0.889306  p :     2.873914
      px      :     0.996148
      py      :     0.988460
      dz2     :     0.044145  d :     0.467434
      dxz     :     0.076542
      dyz     :     0.067158
      dx2y2   :     0.131892
      dxy     :     0.147698
 20 H s       :     0.797312  s :     0.797312
      pz      :     0.034851  p :     0.058375
      px      :     0.012311
      py      :     0.011213
 21 H s       :     0.800791  s :     0.800791
      pz      :     0.015202  p :     0.059702
      px      :     0.030243
      py      :     0.014257
 22 C s       :     2.760824  s :     2.760824
      pz      :     0.927155  p :     2.943920
      px      :     1.024778
      py      :     0.991986
      dz2     :     0.024395  d :     0.365938
      dxz     :     0.076623
      dyz     :     0.026945
      dx2y2   :     0.142815
      dxy     :     0.095161
 23 C s       :     2.709276  s :     2.709276
      pz      :     0.904806  p :     2.762122
      px      :     0.851472
      py      :     1.005843
      dz2     :     0.058340  d :     0.630349
      dxz     :     0.120367
      dyz     :     0.081647
      dx2y2   :     0.172029
      dxy     :     0.197967
 24 C s       :     2.709003  s :     2.709003
      pz      :     0.866578  p :     2.878646
      px      :     1.015292
      py      :     0.996776
      dz2     :     0.044778  d :     0.520127
      dxz     :     0.097673
      dyz     :     0.075135
      dx2y2   :     0.158740
      dxy     :     0.143801
 25 O s       :     3.282088  s :     3.282088
      pz      :     1.583503  p :     4.421323
      px      :     1.270231
      py      :     1.567589
      dz2     :     0.012208  d :     0.100744
      dxz     :     0.021856
      dyz     :     0.006421
      dx2y2   :     0.024427
      dxy     :     0.035833
 26 C s       :     2.748103  s :     2.748103
      pz      :     0.821340  p :     2.639045
      px      :     0.842589
      py      :     0.975116
      dz2     :     0.080429  d :     0.867514
      dxz     :     0.146889
      dyz     :     0.109591
      dx2y2   :     0.270822
      dxy     :     0.259784
 27 C s       :     2.766529  s :     2.766529
      pz      :     0.965352  p :     2.972002
      px      :     1.009562
      py      :     0.997088
      dz2     :     0.026784  d :     0.355698
      dxz     :     0.070969
      dyz     :     0.028641
      dx2y2   :     0.134123
      dxy     :     0.095182
 28 C s       :     2.720642  s :     2.720642
      pz      :     0.919175  p :     2.909056
      px      :     1.009633
      py      :     0.980248
      dz2     :     0.041970  d :     0.477341
      dxz     :     0.090692
      dyz     :     0.059374
      dx2y2   :     0.153638
      dxy     :     0.131667
 29 O s       :     3.440967  s :     3.440967
      pz      :     1.431741  p :     4.576225
      px      :     1.548446
      py      :     1.596038
      dz2     :     0.008373  d :     0.066385
      dxz     :     0.013718
      dyz     :     0.006876
      dx2y2   :     0.015930
      dxy     :     0.021487
 30 C s       :     2.719262  s :     2.719262
      pz      :     0.938203  p :     2.900646
      px      :     0.992567
      py      :     0.969876
      dz2     :     0.064724  d :     0.489523
      dxz     :     0.101097
      dyz     :     0.075961
      dx2y2   :     0.126057
      dxy     :     0.121684
 31 C s       :     2.777263  s :     2.777263
      pz      :     0.917769  p :     2.929171
      px      :     1.032926
      py      :     0.978476
      dz2     :     0.036910  d :     0.371162
      dxz     :     0.078606
      dyz     :     0.055967
      dx2y2   :     0.112180
      dxy     :     0.087498
 32 C s       :     2.782360  s :     2.782360
      pz      :     0.938361  p :     2.888014
      px      :     0.969647
      py      :     0.980007
      dz2     :     0.048660  d :     0.468306
      dxz     :     0.096583
      dyz     :     0.069040
      dx2y2   :     0.133514
      dxy     :     0.120508
 33 N s       :     3.078482  s :     3.078482
      pz      :     1.206059  p :     3.709480
      px      :     1.170551
      py      :     1.332870
      dz2     :     0.025418  d :     0.216490
      dxz     :     0.055364
      dyz     :     0.017844
      dx2y2   :     0.057230
      dxy     :     0.060633
 34 C s       :     2.791275  s :     2.791275
      pz      :     0.950343  p :     2.920257
      px      :     0.963742
      py      :     1.006172
      dz2     :     0.080880  d :     0.471489
      dxz     :     0.085532
      dyz     :     0.068827
      dx2y2   :     0.087888
      dxy     :     0.148361
 35 C s       :     2.783100  s :     2.783100
      pz      :     0.957885  p :     2.993907
      px      :     1.012305
      py      :     1.023717
      dz2     :     0.042557  d :     0.368773
      dxz     :     0.070851
      dyz     :     0.061833
      dx2y2   :     0.108354
      dxy     :     0.085178
 36 H s       :     0.806497  s :     0.806497
      pz      :     0.020231  p :     0.061997
      px      :     0.028737
      py      :     0.013029
 37 H s       :     0.797059  s :     0.797059
      pz      :     0.018484  p :     0.061193
      px      :     0.029531
      py      :     0.013178
 38 H s       :     0.811222  s :     0.811222
      pz      :     0.012356  p :     0.060401
      px      :     0.026753
      py      :     0.021292
 39 H s       :     0.790290  s :     0.790290
      pz      :     0.021516  p :     0.066372
      px      :     0.012154
      py      :     0.032702
 40 H s       :     0.790512  s :     0.790512
      pz      :     0.016300  p :     0.061277
      px      :     0.010804
      py      :     0.034173
 41 H s       :     0.792752  s :     0.792752
      pz      :     0.018659  p :     0.066194
      px      :     0.011453
      py      :     0.036082


                      *****************************
                      * MAYER POPULATION ANALYSIS *
                      *****************************

  NA   - Mulliken gross atomic population
  ZA   - Total nuclear charge
  QA   - Mulliken gross atomic charge
  VA   - Mayer's total valence
  BVA  - Mayer's bonded valence
  FA   - Mayer's free valence

  ATOM       NA         ZA         QA         VA         BVA        FA
  0 C      6.1133     6.0000    -0.1133     3.9001     3.8907     0.0094
  1 C      6.1620     6.0000    -0.1620     3.9462     3.9417     0.0046
  2 C      6.2322     6.0000    -0.2322     3.9186     3.9135     0.0051
  3 H      0.8920     1.0000     0.1080     0.9676     0.9664     0.0012
  4 H      0.8766     1.0000     0.1234     0.9588     0.9581     0.0007
  5 C      5.7358     6.0000     0.2642     3.6807     3.6024     0.0783
  6 H      0.8696     1.0000     0.1304     0.9533     0.9506     0.0027
  7 H      0.8824     1.0000     0.1176     0.9543     0.9501     0.0042
  8 C      6.0112     6.0000    -0.0112     4.0764     3.9575     0.1188
  9 N      7.0930     7.0000    -0.0930     3.4332     3.2557     0.1775
 10 H      0.8800     1.0000     0.1200     0.9565     0.9309     0.0256
 11 H      0.8552     1.0000     0.1448     0.9477     0.9432     0.0045
 12 C      6.1130     6.0000    -0.1130     3.8940     3.8846     0.0095
 13 C      6.1533     6.0000    -0.1533     3.9492     3.9442     0.0050
 14 H      0.8814     1.0000     0.1186     0.9584     0.9322     0.0262
 15 H      0.8544     1.0000     0.1456     0.9478     0.9444     0.0034
 16 C      6.2679     6.0000    -0.2679     3.9482     3.9441     0.0041
 17 H      0.8762     1.0000     0.1238     0.9601     0.9589     0.0011
 18 H      0.8904     1.0000     0.1096     0.9670     0.9657     0.0013
 19 C      5.8658     6.0000     0.1342     3.6873     3.5824     0.1049
 20 H      0.8777     1.0000     0.1223     0.9570     0.9510     0.0060
 21 H      0.8655     1.0000     0.1345     0.9583     0.9560     0.0023
 22 C      6.5693     6.0000    -0.5693     3.8137     3.7202     0.0935
 23 C      5.9301     6.0000     0.0699     3.8921     3.8127     0.0794
 24 C      5.5251     6.0000     0.4749     3.5774     3.4420     0.1354
 25 O      8.3803     8.0000    -0.3803     2.0859     2.0474     0.0385
 26 C      5.5922     6.0000     0.4078     4.2167     4.1511     0.0656
 27 C      6.4149     6.0000    -0.4149     3.7174     3.3351     0.3823
 28 C      5.8114     6.0000     0.1886     3.4314     3.2627     0.1687
 29 O      8.5768     8.0000    -0.5768     1.9798     1.9234     0.0564
 30 C      5.8490     6.0000     0.1510     3.7777     3.7136     0.0641
 31 C      6.2051     6.0000    -0.2051     3.9961     3.9449     0.0512
 32 C      6.0510     6.0000    -0.0510     4.0312     3.9628     0.0684
 33 N      7.5009     7.0000    -0.5009     3.0418     3.0359     0.0059
 34 C      5.9500     6.0000     0.0500     3.9837     3.9068     0.0769
 35 C      6.0756     6.0000    -0.0756     3.9236     3.9029     0.0206
 36 H      0.8842     1.0000     0.1158     0.9945     0.9899     0.0046
 37 H      0.8883     1.0000     0.1117     0.9691     0.9685     0.0006
 38 H      0.8801     1.0000     0.1199     0.9757     0.9742     0.0015
 39 H      0.8738     1.0000     0.1262     1.0008     1.0003     0.0005
 40 H      0.9105     1.0000     0.0895     0.9904     0.9891     0.0013
 41 H      0.8825     1.0000     0.1175     0.9879     0.9831     0.0049

  Mayer bond orders larger than 0.100000
B(  0-C ,  1-C ) :   0.9992 B(  0-C ,  9-N ) :   0.9556 B(  0-C , 10-H ) :   0.9291 
B(  0-C , 11-H ) :   0.9443 B(  1-C ,  2-C ) :   1.0218 B(  1-C ,  3-H ) :   0.9660 
B(  1-C ,  4-H ) :   0.9583 B(  2-C ,  5-C ) :   0.9995 B(  2-C ,  6-H ) :   0.9527 
B(  2-C ,  7-H ) :   0.9404 B(  5-C ,  8-C ) :   1.2387 B(  5-C , 22-C ) :   1.3503 
B(  8-C ,  9-N ) :   1.3299 B(  8-C , 19-C ) :   1.2089 B(  9-N , 12-C ) :   0.9531 
B( 12-C , 13-C ) :   0.9947 B( 12-C , 14-H ) :   0.9285 B( 12-C , 15-H ) :   0.9468 
B( 13-C , 16-C ) :   1.0325 B( 13-C , 17-H ) :   0.9599 B( 13-C , 18-H ) :   0.9651 
B( 16-C , 19-C ) :   1.0362 B( 16-C , 20-H ) :   0.9448 B( 16-C , 21-H ) :   0.9460 
B( 19-C , 23-C ) :   1.3287 B( 22-C , 24-C ) :   1.0823 B( 22-C , 40-H ) :   1.0584 
B( 23-C , 24-C ) :   1.3404 B( 23-C , 25-O ) :   1.0039 B( 24-C , 27-C ) :   1.1116 
B( 25-O , 26-C ) :   1.0625 B( 26-C , 28-C ) :   1.1570 B( 26-C , 29-O ) :   1.8530 
B( 27-C , 28-C ) :   1.1636 B( 27-C , 41-H ) :   0.9763 B( 28-C , 30-C ) :   1.0736 
B( 30-C , 31-C ) :   1.3337 B( 30-C , 32-C ) :   1.2875 B( 31-C , 35-C ) :   1.5072 
B( 31-C , 39-H ) :   0.9573 B( 32-C , 33-N ) :   1.5502 B( 32-C , 36-H ) :   0.9678 
B( 33-N , 34-C ) :   1.4305 B( 34-C , 35-C ) :   1.3656 B( 34-C , 38-H ) :   0.9693 
B( 35-C , 37-H ) :   0.9659 


-------
TIMINGS
-------

Total TD-DFT gradient time  ....      498.718 sec

Fock matrix formation       ....     136.533 sec  ( 27.4%)
  Coulomb formation         ....     126.657 sec  ( 92.8% of F)
  XC integration            ....       9.876 sec  (  7.2% of F)
Z-vector equation           ....     171.238 sec  ( 34.3%)
Densities                   ....       0.000 sec  (  0.0%)
One electron gradient       ....       1.638 sec  (  0.3%)
Two electron gradient       ....       0.000 sec  (  0.0%)
RI-J Coulomb gradient       ....      11.388 sec  (  2.3%)
COSX gradient               ....      27.599 sec  (  5.5%)
XC gradient                 ....      95.933 sec  ( 19.2%)
CPCM gradient               ....      10.591 sec  (  2.1%)
   A-Matrix (El+Nuc)        ....       0.256 sec  (  0.1%)
   Potential                ....      10.335 sec  (  2.1%)

Maximum memory used throughout the entire CIS-calculation: 348.6 MB
=> NOW LEAVING ORCA_CIS


-------------------------------------------------------------------------------
                          DFT DISPERSION CORRECTION                            
                                                                               
                              DFTD3 V3.1  Rev 1                                
                          USING Becke-Johnson damping                          
-------------------------------------------------------------------------------
The B3LYP functional is recognized
Active option DFTDOPT                   ...         4   

molecular C6(AA) [au] = 20184.315649 


            DFT-D V3
 parameters
 s6 scaling factor         :     1.0000 
 a1 scaling factor         :     0.3981 
 s8 scaling factor         :     1.9889 
 a2 scaling factor         :     4.4211 
 ad hoc parameters k1-k3   :    16.0000     1.3333    -4.0000 

 Edisp/kcal,au: -61.472838838107  -0.097963193898 
 E6   /kcal   : -28.840719821 
 E8   /kcal   : -32.632119017 
 % E8         :  53.083800315 

-------------------------   ----------------
Dispersion correction           -0.097963194
-------------------------   ----------------


-------------------------   --------------------
FINAL SINGLE POINT ENERGY     -1032.695227364336
-------------------------   --------------------

------------------------------------------------------------------------------
                         ORCA GEOMETRY RELAXATION STEP
------------------------------------------------------------------------------

Reading the OPT-File                    .... done
Getting information on internals        .... done
Copying old internal coords+grads       .... done
Making the new internal coordinates     .... (2022 redundants) done
Validating the new internal coordinates .... (2022 redundants) done
Calculating the B-matrix                .... done
Calculating the G,G- and P matrices     .... done
Transforming gradient to internals      .... done
Projecting the internal gradient        .... done
Number of atoms                         ....  42
Number of internal coordinates          .... 241
Current Energy                          .... -1032.695227364 Eh
Current gradient norm                   ....     0.003123295 Eh/bohr
Maximum allowed component of the step   ....  0.300
Current trust radius                    ....  0.300
Evaluating the initial hessian          ....  (Almloef) done
Projecting the Hessian                  .... done
Forming the augmented Hessian           .... done
Diagonalizing the augmented Hessian     .... done
Last element of RFO vector              ....  0.999411194
Lowest eigenvalues of augmented Hessian:
 -0.000189797  0.015163312  0.016387149  0.017299901  0.018411946
Length of the computed step             ....  0.034331511
The final length of the internal step   ....  0.034331511
Converting the step to Cartesian space:
 Initial RMS(Int)=    0.0022114871
Transforming coordinates:
 Iter   0:  RMS(Cart)=    0.0100525952 RMS(Int)=    0.0022106636
done
Storing new coordinates                 .... done

                                .--------------------.
          ----------------------|Geometry convergence|-------------------------
          Item                value                   Tolerance       Converged
          ---------------------------------------------------------------------
          RMS gradient        0.0005950650            0.0001000000      NO
          MAX gradient        0.0030933005            0.0003000000      NO
          RMS step            0.0022114871            0.0020000000      NO
          MAX step            0.0074296894            0.0040000000      NO
          ........................................................
          Max(Bonds)      0.0032      Max(Angles)    0.15
          Max(Dihed)        0.43      Max(Improp)    0.00
          ---------------------------------------------------------------------

The optimization has not yet converged - more geometry cycles are needed


    ---------------------------------------------------------------------------
                         Redundant Internal Coordinates
                            (Angstroem and degrees)

        Definition                    Value    dE/dq     Step     New-Value
    ----------------------------------------------------------------------------
     1. B(C   1,C   0)                1.5189  0.001064 -0.0014    1.5175   
     2. B(C   2,C   1)                1.5234  0.001051 -0.0014    1.5221   
     3. B(H   3,C   1)                1.0931  0.000095 -0.0001    1.0930   
     4. B(H   4,C   1)                1.0905  0.000154 -0.0002    1.0903   
     5. B(C   5,C   2)                1.5069  0.001770 -0.0022    1.5046   
     6. B(H   6,C   2)                1.0912  0.000162 -0.0002    1.0909   
     7. B(H   7,C   2)                1.0963  0.000180 -0.0003    1.0960   
     8. B(C   8,C   5)                1.4307  0.001735 -0.0018    1.4289   
     9. B(N   9,C   8)                1.3689  0.002299 -0.0022    1.3667   
    10. B(N   9,C   0)                1.4595  0.001817 -0.0023    1.4572   
    11. B(H  10,C   0)                1.1006  0.000202 -0.0003    1.1003   
    12. B(H  11,C   0)                1.0898  0.000180 -0.0003    1.0896   
    13. B(C  12,N   9)                1.4584  0.001763 -0.0022    1.4562   
    14. B(C  13,C  12)                1.5181  0.000996 -0.0013    1.5168   
    15. B(H  14,C  12)                1.1007  0.000194 -0.0003    1.1004   
    16. B(H  15,C  12)                1.0893  0.000182 -0.0003    1.0890   
    17. B(C  16,C  13)                1.5233  0.001171 -0.0014    1.5219   
    18. B(H  17,C  13)                1.0904  0.000142 -0.0002    1.0902   
    19. B(H  18,C  13)                1.0929  0.000092 -0.0001    1.0927   
    20. B(C  19,C  16)                1.5056  0.002077 -0.0026    1.5030   
    21. B(C  19,C   8)                1.4298  0.002141 -0.0022    1.4275   
    22. B(H  20,C  16)                1.0964  0.000211 -0.0003    1.0961   
    23. B(H  21,C  16)                1.0896  0.000108 -0.0002    1.0894   
    24. B(C  22,C   5)                1.3764  0.001654 -0.0013    1.3751   
    25. B(C  23,C  19)                1.3850  0.002743 -0.0023    1.3827   
    26. B(C  24,C  23)                1.4063  0.001390 -0.0012    1.4051   
    27. B(C  24,C  22)                1.4145  0.001532 -0.0013    1.4132   
    28. B(O  25,C  23)                1.3741  0.001226 -0.0011    1.3730   
    29. B(C  26,O  25)                1.3963  0.001123 -0.0011    1.3952   
    30. B(C  27,C  24)                1.4200  0.001964 -0.0019    1.4181   
    31. B(C  28,C  26)                1.4479  0.001459 -0.0015    1.4463   
    32. B(C  28,C  27)                1.4115  0.001828 -0.0017    1.4098   
    33. B(O  29,C  26)                1.2241  0.000385 -0.0002    1.2239   
    34. B(C  30,C  28)                1.4485  0.003093 -0.0032    1.4453   
    35. B(C  31,C  30)                1.4156  0.001542 -0.0015    1.4141   
    36. B(C  32,C  30)                1.4235  0.001413 -0.0014    1.4221   
    37. B(N  33,C  32)                1.3281  0.000638 -0.0005    1.3276   
    38. B(C  34,N  33)                1.3403  0.000121 -0.0001    1.3402   
    39. B(C  35,C  34)                1.3947  0.000221 -0.0002    1.3946   
    40. B(C  35,C  31)                1.3804  0.000769 -0.0006    1.3798   
    41. B(H  36,C  32)                1.0829  0.000098 -0.0001    1.0827   
    42. B(H  37,C  35)                1.0826  0.000130 -0.0002    1.0824   
    43. B(H  38,C  34)                1.0843  0.000109 -0.0002    1.0841   
    44. B(H  39,C  31)                1.0776  0.000119 -0.0002    1.0774   
    45. B(H  40,C  22)                1.0839  0.000231 -0.0003    1.0836   
    46. B(H  41,C  27)                1.0788  0.000154 -0.0002    1.0786   
    47. A(C   1,C   0,H  10)          109.93 -0.000164    0.04    109.97   
    48. A(C   1,C   0,N   9)          111.90  0.000295   -0.12    111.78   
    49. A(N   9,C   0,H  11)          107.37  0.000145   -0.04    107.33   
    50. A(H  10,C   0,H  11)          107.18 -0.000146    0.10    107.28   
    51. A(C   1,C   0,H  11)          111.29 -0.000122    0.04    111.33   
    52. A(N   9,C   0,H  10)          109.02 -0.000018   -0.01    109.00   
    53. A(C   2,C   1,H   3)          110.37 -0.000036   -0.01    110.36   
    54. A(C   0,C   1,H   3)          109.44  0.000070   -0.03    109.42   
    55. A(C   2,C   1,H   4)          110.96  0.000037    0.02    110.98   
    56. A(H   3,C   1,H   4)          107.68 -0.000153    0.08    107.76   
    57. A(C   0,C   1,H   4)          108.91 -0.000014    0.01    108.92   
    58. A(C   0,C   1,C   2)          109.44  0.000094   -0.07    109.37   
    59. A(C   5,C   2,H   7)          109.31  0.000288   -0.04    109.28   
    60. A(C   1,C   2,C   5)          111.05  0.000359   -0.11    110.94   
    61. A(C   5,C   2,H   6)          109.56  0.000016   -0.02    109.55   
    62. A(C   1,C   2,H   7)          109.10 -0.000150    0.02    109.11   
    63. A(C   1,C   2,H   6)          111.13 -0.000191    0.04    111.17   
    64. A(H   6,C   2,H   7)          106.57 -0.000343    0.11    106.68   
    65. A(C   2,C   5,C   8)          120.24 -0.000159   -0.01    120.23   
    66. A(C   2,C   5,C  22)          120.70  0.000283   -0.01    120.69   
    67. A(C   8,C   5,C  22)          119.06 -0.000124    0.01    119.08   
    68. A(C   5,C   8,N   9)          120.35 -0.000138    0.01    120.36   
    69. A(N   9,C   8,C  19)          119.79  0.000114   -0.03    119.76   
    70. A(C   5,C   8,C  19)          119.86  0.000023    0.02    119.88   
    71. A(C   0,N   9,C   8)          121.34 -0.000237    0.00    121.35   
    72. A(C   8,N   9,C  12)          121.21 -0.000151   -0.02    121.19   
    73. A(C   0,N   9,C  12)          116.30  0.000400   -0.00    116.30   
    74. A(H  14,C  12,H  15)          107.31 -0.000142    0.09    107.41   
    75. A(C  13,C  12,H  15)          111.26 -0.000068    0.04    111.30   
    76. A(N   9,C  12,H  15)          107.48  0.000122   -0.03    107.45   
    77. A(C  13,C  12,H  14)          110.06 -0.000171    0.04    110.10   
    78. A(N   9,C  12,H  14)          109.16  0.000095   -0.02    109.14   
    79. A(N   9,C  12,C  13)          111.43  0.000162   -0.11    111.32   
    80. A(C  12,C  13,H  17)          109.11 -0.000088    0.02    109.13   
    81. A(C  12,C  13,C  16)          109.95  0.000238   -0.08    109.87   
    82. A(H  17,C  13,H  18)          107.65 -0.000303    0.11    107.76   
    83. A(C  16,C  13,H  18)          110.26  0.000182   -0.02    110.24   
    84. A(C  12,C  13,H  18)          109.26 -0.000045   -0.02    109.24   
    85. A(C  16,C  13,H  17)          110.57  0.000002    0.00    110.57   
    86. A(H  20,C  16,H  21)          106.20 -0.000234    0.08    106.27   
    87. A(C  19,C  16,H  21)          109.73  0.000291   -0.03    109.69   
    88. A(C  13,C  16,H  21)          110.76 -0.000303    0.06    110.82   
    89. A(C  19,C  16,H  20)          109.06 -0.000014   -0.03    109.03   
    90. A(C  13,C  16,C  19)          111.34  0.000472   -0.10    111.24   
    91. A(C  13,C  16,H  20)          109.60 -0.000244    0.04    109.64   
    92. A(C  16,C  19,C  23)          120.73  0.000884   -0.09    120.64   
    93. A(C   8,C  19,C  23)          118.10 -0.000249    0.02    118.12   
    94. A(C   8,C  19,C  16)          121.17 -0.000635    0.07    121.24   
    95. A(C   5,C  22,C  24)          122.63  0.000425   -0.06    122.57   
    96. A(C  24,C  22,H  40)          118.31 -0.000219    0.03    118.34   
    97. A(C   5,C  22,H  40)          119.06 -0.000205    0.03    119.09   
    98. A(C  24,C  23,O  25)          120.00 -0.000825    0.11    120.11   
    99. A(C  19,C  23,O  25)          116.56  0.000803   -0.10    116.46   
   100. A(C  19,C  23,C  24)          123.44  0.000022   -0.01    123.43   
   101. A(C  23,C  24,C  27)          119.02 -0.000007   -0.01    119.01   
   102. A(C  22,C  24,C  27)          124.09  0.000104   -0.02    124.08   
   103. A(C  22,C  24,C  23)          116.89 -0.000097    0.02    116.91   
   104. A(C  23,O  25,C  26)          123.09  0.000890   -0.12    122.97   
   105. A(C  28,C  26,O  29)          128.04  0.000114   -0.01    128.02   
   106. A(O  25,C  26,O  29)          113.85 -0.000417    0.05    113.90   
   107. A(O  25,C  26,C  28)          118.10  0.000303   -0.04    118.06   
   108. A(C  24,C  27,C  28)          121.10  0.000709   -0.10    121.00   
   109. A(C  28,C  27,H  41)          120.74 -0.000238    0.03    120.77   
   110. A(C  24,C  27,H  41)          118.09 -0.000471    0.07    118.16   
   111. A(C  27,C  28,C  30)          121.44  0.000486   -0.07    121.38   
   112. A(C  26,C  28,C  30)          119.88  0.000582   -0.08    119.79   
   113. A(C  26,C  28,C  27)          118.67 -0.001068    0.15    118.82   
   114. A(C  31,C  30,C  32)          115.17 -0.001079    0.14    115.31   
   115. A(C  28,C  30,C  32)          119.94  0.000601   -0.08    119.86   
   116. A(C  28,C  30,C  31)          124.88  0.000478   -0.06    124.82   
   117. A(C  35,C  31,H  39)          120.18 -0.000459    0.07    120.25   
   118. A(C  30,C  31,H  39)          119.85  0.000035   -0.01    119.84   
   119. A(C  30,C  31,C  35)          119.97  0.000424   -0.06    119.91   
   120. A(N  33,C  32,H  36)          115.35 -0.000447    0.07    115.42   
   121. A(C  30,C  32,H  36)          119.77  0.000132   -0.02    119.75   
   122. A(C  30,C  32,N  33)          124.85  0.000313   -0.05    124.80   
   123. A(C  32,N  33,C  34)          118.24  0.000364   -0.04    118.19   
   124. A(C  35,C  34,H  38)          121.00  0.000118   -0.02    120.98   
   125. A(N  33,C  34,H  38)          116.79  0.000064   -0.01    116.78   
   126. A(N  33,C  34,C  35)          122.21 -0.000182    0.03    122.25   
   127. A(C  34,C  35,H  37)          120.01 -0.000072    0.01    120.01   
   128. A(C  31,C  35,H  37)          120.44 -0.000088    0.01    120.45   
   129. A(C  31,C  35,C  34)          119.56  0.000160   -0.02    119.54   
   130. D(C   2,C   1,C   0,N   9)     55.81 -0.000156    0.29     56.10   
   131. D(C   2,C   1,C   0,H  10)    -65.47 -0.000217    0.36    -65.11   
   132. D(C   2,C   1,C   0,H  11)    175.94  0.000146    0.19    176.12   
   133. D(H   3,C   1,C   0,N   9)    -65.26 -0.000214    0.36    -64.90   
   134. D(H   3,C   1,C   0,H  11)     54.87  0.000088    0.25     55.12   
   135. D(H   3,C   1,C   0,H  10)    173.46 -0.000275    0.43    173.89   
   136. D(C   5,C   2,C   1,C   0)    -51.74  0.000091   -0.26    -52.01   
   137. D(H   6,C   2,C   1,C   0)   -173.97 -0.000048   -0.20   -174.18   
   138. D(H   6,C   2,C   1,H   4)     65.81 -0.000114   -0.18     65.64   
   139. D(H   6,C   2,C   1,H   3)    -53.47  0.000077   -0.28    -53.75   
   140. D(C   5,C   2,C   1,H   3)     68.76  0.000215   -0.34     68.42   
   141. D(C   5,C   2,C   1,H   4)   -171.95  0.000024   -0.24   -172.19   
   142. D(C   8,C   5,C   2,C   1)     25.94 -0.000014    0.06     26.00   
   143. D(C   8,C   5,C   2,H   6)    149.07 -0.000002    0.04    149.11   
   144. D(C  22,C   5,C   2,C   1)   -154.44 -0.000018    0.04   -154.41   
   145. D(C   8,C   5,C   2,H   7)    -94.49 -0.000242    0.14    -94.35   
   146. D(C  22,C   5,C   2,H   6)    -31.31 -0.000006    0.01    -31.30   
   147. D(C  19,C   8,C   5,C  22)     -0.78  0.000028   -0.02     -0.80   
   148. D(C  19,C   8,C   5,C   2)    178.84  0.000026   -0.05    178.79   
   149. D(N   9,C   8,C   5,C  22)    178.80 -0.000078    0.13    178.93   
   150. D(N   9,C   8,C   5,C   2)     -1.57 -0.000080    0.10     -1.47   
   151. D(C  12,N   9,C   8,C  19)     -7.94  0.000026   -0.04     -7.98   
   152. D(C  12,N   9,C   8,C   5)    172.47  0.000133   -0.19    172.28   
   153. D(C   0,N   9,C   8,C  19)   -175.28 -0.000089    0.08   -175.20   
   154. D(C   0,N   9,C   8,C   5)      5.13  0.000018   -0.07      5.06   
   155. D(C  12,N   9,C   0,H  10)    -79.15  0.000033   -0.03    -79.18   
   156. D(C  12,N   9,C   0,C   1)    159.04  0.000059    0.00    159.05   
   157. D(C   8,N   9,C   0,H  11)   -155.42 -0.000023   -0.06   -155.48   
   158. D(C   8,N   9,C   0,H  10)     88.78  0.000081   -0.15     88.63   
   159. D(C   8,N   9,C   0,C   1)    -33.03  0.000107   -0.11    -33.14   
   160. D(C  13,C  12,N   9,C   0)   -155.35 -0.000138    0.14   -155.21   
   161. D(H  15,C  12,N   9,C   0)    -33.20 -0.000042    0.10    -33.11   
   162. D(H  14,C  12,N   9,C   8)    -85.06 -0.000130    0.29    -84.78   
   163. D(H  14,C  12,N   9,C   0)     82.88 -0.000093    0.18     83.06   
   164. D(C  13,C  12,N   9,C   8)     36.70 -0.000175    0.25     36.95   
   165. D(H  17,C  13,C  12,H  15)     62.12 -0.000167   -0.19     61.93   
   166. D(H  17,C  13,C  12,H  14)    -56.70  0.000163   -0.36    -57.06   
   167. D(H  17,C  13,C  12,N   9)   -177.94  0.000051   -0.29   -178.23   
   168. D(C  16,C  13,C  12,H  15)   -176.46 -0.000071   -0.23   -176.69   
   169. D(C  16,C  13,C  12,H  14)     64.72  0.000258   -0.40     64.32   
   170. D(C  16,C  13,C  12,N   9)    -56.52  0.000147   -0.32    -56.84   
   171. D(H  20,C  16,C  13,H  17)     48.52 -0.000040    0.22     48.73   
   172. D(H  20,C  16,C  13,C  12)    -72.03 -0.000086    0.24    -71.78   
   173. D(C  19,C  16,C  13,H  18)    -71.80 -0.000173    0.26    -71.54   
   174. D(C  19,C  16,C  13,H  17)    169.27  0.000086    0.14    169.41   
   175. D(H  20,C  16,C  13,H  18)    167.44 -0.000299    0.34    167.78   
   176. D(C  19,C  16,C  13,C  12)     48.73  0.000040    0.16     48.89   
   177. D(C  23,C  19,C  16,H  20)    -80.37  0.000001    0.00    -80.37   
   178. D(C   8,C  19,C  16,H  21)   -144.77 -0.000108    0.06   -144.72   
   179. D(C   8,C  19,C  16,H  20)     99.29  0.000017    0.00     99.29   
   180. D(C   8,C  19,C  16,C  13)    -21.79  0.000030    0.04    -21.74   
   181. D(C  23,C  19,C   8,N   9)    179.88  0.000086   -0.12    179.76   
   182. D(C  23,C  19,C   8,C   5)     -0.53 -0.000021    0.03     -0.50   
   183. D(C  23,C  19,C  16,C  13)    158.56  0.000014    0.04    158.60   
   184. D(C  16,C  19,C   8,N   9)      0.22  0.000066   -0.12      0.09   
   185. D(C  16,C  19,C   8,C   5)    179.80 -0.000040    0.03    179.83   
   186. D(H  40,C  22,C   5,C   8)   -179.16  0.000001   -0.02   -179.18   
   187. D(H  40,C  22,C   5,C   2)      1.22  0.000006    0.01      1.22   
   188. D(C  24,C  22,C   5,C   8)      1.22 -0.000011    0.01      1.23   
   189. D(C  24,C  22,C   5,C   2)   -178.40 -0.000007    0.04   -178.36   
   190. D(O  25,C  23,C  19,C   8)   -178.65 -0.000005   -0.00   -178.65   
   191. D(C  24,C  23,C  19,C  16)   -178.83  0.000026   -0.03   -178.86   
   192. D(C  24,C  23,C  19,C   8)      1.50  0.000012   -0.03      1.47   
   193. D(O  25,C  23,C  19,C  16)      1.02  0.000010   -0.00      1.02   
   194. D(C  27,C  24,C  23,O  25)     -0.84 -0.000010    0.04     -0.80   
   195. D(C  27,C  24,C  23,C  19)    179.01 -0.000025    0.07    179.08   
   196. D(C  22,C  24,C  23,O  25)    179.06  0.000011   -0.01    179.05   
   197. D(C  22,C  24,C  23,C  19)     -1.09 -0.000003    0.01     -1.08   
   198. D(C  27,C  24,C  22,H  40)     -0.05  0.000012   -0.03     -0.08   
   199. D(C  27,C  24,C  22,C   5)    179.57  0.000024   -0.06    179.51   
   200. D(C  23,C  24,C  22,H  40)   -179.95 -0.000010    0.03   -179.92   
   201. D(C  23,C  24,C  22,C   5)     -0.32  0.000002   -0.01     -0.33   
   202. D(C  26,O  25,C  23,C  24)      1.85 -0.000015    0.03      1.88   
   203. D(C  26,O  25,C  23,C  19)   -178.01 -0.000000    0.01   -178.00   
   204. D(O  29,C  26,O  25,C  23)    177.39  0.000013   -0.04    177.35   
   205. D(C  28,C  26,O  25,C  23)     -1.56  0.000022   -0.08     -1.63   
   206. D(H  41,C  27,C  24,C  23)    176.56  0.000031   -0.07    176.49   
   207. D(H  41,C  27,C  24,C  22)     -3.33  0.000008   -0.01     -3.35   
   208. D(C  28,C  27,C  24,C  23)     -0.37  0.000032   -0.07     -0.44   
   209. D(C  28,C  27,C  24,C  22)    179.74  0.000009   -0.02    179.72   
   210. D(C  30,C  28,C  27,H  41)      4.99 -0.000022    0.05      5.04   
   211. D(C  30,C  28,C  27,C  24)   -178.17 -0.000029    0.05   -178.11   
   212. D(C  26,C  28,C  27,H  41)   -176.22 -0.000005    0.03   -176.20   
   213. D(C  26,C  28,C  27,C  24)      0.62 -0.000012    0.03      0.65   
   214. D(C  30,C  28,C  26,O  29)      0.33  0.000008   -0.02      0.31   
   215. D(C  30,C  28,C  26,O  25)    179.11 -0.000008    0.02    179.13   
   216. D(C  27,C  28,C  26,O  29)   -178.48 -0.000008    0.01   -178.47   
   217. D(C  27,C  28,C  26,O  25)      0.30 -0.000024    0.04      0.34   
   218. D(C  32,C  30,C  28,C  27)     17.84  0.000075   -0.28     17.56   
   219. D(C  32,C  30,C  28,C  26)   -160.94  0.000078   -0.26   -161.20   
   220. D(C  31,C  30,C  28,C  27)   -160.83  0.000075   -0.25   -161.08   
   221. D(C  31,C  30,C  28,C  26)     20.39  0.000078   -0.22     20.17   
   222. D(H  39,C  31,C  30,C  32)   -179.15  0.000004   -0.01   -179.16   
   223. D(H  39,C  31,C  30,C  28)     -0.42  0.000023   -0.04     -0.47   
   224. D(C  35,C  31,C  30,C  32)     -0.10 -0.000006    0.01     -0.08   
   225. D(C  35,C  31,C  30,C  28)    178.63  0.000013   -0.02    178.61   
   226. D(H  36,C  32,C  30,C  31)   -178.07  0.000040   -0.08   -178.15   
   227. D(H  36,C  32,C  30,C  28)      3.14  0.000022   -0.04      3.09   
   228. D(N  33,C  32,C  30,C  31)     -0.33 -0.000005    0.02     -0.31   
   229. D(N  33,C  32,C  30,C  28)   -179.12 -0.000023    0.05   -179.07   
   230. D(C  34,N  33,C  32,H  36)    178.47 -0.000004    0.03    178.50   
   231. D(C  34,N  33,C  32,C  30)      0.64  0.000029   -0.05      0.58   
   232. D(H  38,C  34,N  33,C  32)    179.39 -0.000016    0.03    179.42   
   233. D(C  35,C  34,N  33,C  32)     -0.53 -0.000033    0.07     -0.46   
   234. D(H  37,C  35,C  34,H  38)     -0.38 -0.000002    0.01     -0.37   
   235. D(H  37,C  35,C  34,N  33)    179.53  0.000015   -0.03    179.50   
   236. D(C  31,C  35,C  34,H  38)   -179.78  0.000004   -0.01   -179.79   
   237. D(C  31,C  35,C  34,N  33)      0.13  0.000021   -0.04      0.09   
   238. D(H  37,C  35,C  31,H  39)     -0.16 -0.000000    0.01     -0.15   
   239. D(H  37,C  35,C  31,C  30)   -179.21  0.000005   -0.01   -179.22   
   240. D(C  34,C  35,C  31,H  39)    179.24 -0.000006    0.02    179.26   
   241. D(C  34,C  35,C  31,C  30)      0.19 -0.000001    0.00      0.19   
    ----------------------------------------------------------------------------

Geometry step timings:
Preparation and reading OPT file:      0.001 s ( 2.494 %)
Internal coordinates            :      0.000 s ( 0.064 %)
B/P matrices and projection     :      0.004 s ( 9.281 %)
Hessian update/contruction      :      0.028 s (64.598 %)
Making the step                 :      0.003 s ( 6.372 %)
Converting the step to Cartesian:      0.000 s ( 0.713 %)
Storing new data                :      0.003 s ( 6.832 %)
Checking convergence            :      0.000 s ( 0.021 %)
Final printing                  :      0.004 s ( 9.620 %)
Total time                      :      0.044 s

Time for energy+gradient        :   1032.314 s
Time for complete geometry iter :   1032.877 s

         *************************************************************
         *                GEOMETRY OPTIMIZATION CYCLE   2            *
         *************************************************************
---------------------------------
CARTESIAN COORDINATES (ANGSTROEM)
---------------------------------
  C     -6.554846   -1.482369   -0.141461
  C     -6.530279   -2.589220   -1.179332
  C     -5.560981   -3.675719   -0.735849
  H     -6.223448   -2.176318   -2.143708
  H     -7.538305   -2.988598   -1.294120
  C     -4.217099   -3.091115   -0.395085
  H     -5.442643   -4.437228   -1.508020
  H     -5.969141   -4.182688    0.145984
  C     -4.111119   -1.731292    0.030704
  N     -5.224128   -0.941456    0.103562
  H     -6.966409   -1.863802    0.804969
  H     -7.188038   -0.654687   -0.459571
  C     -5.166842    0.390173    0.690138
  C     -3.860554    1.084442    0.355263
  H     -5.283020    0.308988    1.781331
  H     -6.020858    0.950468    0.312347
  C     -2.688240    0.235181    0.824941
  H     -3.842177    2.062480    0.836580
  H     -3.803694    1.243168   -0.724377
  C     -2.835559   -1.191887    0.376848
  H     -2.628999    0.261929    1.919127
  H     -1.745509    0.639706    0.458198
  C     -3.077267   -3.855563   -0.479882
  C     -1.733070   -2.022467    0.295716
  C     -1.799924   -3.357495   -0.137342
  O     -0.527878   -1.477217    0.663657
  C      0.675662   -2.179730    0.595935
  C     -0.605950   -4.119890   -0.203114
  C      0.636674   -3.554796    0.149198
  O      1.654629   -1.518350    0.915694
  C      1.863654   -4.311709    0.046914
  C      3.069109   -3.989294    0.712281
  C      1.904243   -5.490436   -0.747627
  N      2.970265   -6.267614   -0.896314
  C      4.093397   -5.933144   -0.245981
  C      4.175001   -4.801071    0.564323
  H      1.029793   -5.787934   -1.312550
  H      5.098339   -4.569409    1.079550
  H      4.946810   -6.588947   -0.375996
  H      3.115832   -3.118436    1.344970
  H     -3.155709   -4.882802   -0.815609
  H     -0.680401   -5.159204   -0.481832

----------------------------
CARTESIAN COORDINATES (A.U.)
----------------------------
  NO LB      ZA    FRAG     MASS         X           Y           Z
   0 C     6.0000    0    12.011  -12.386863   -2.801271   -0.267322
   1 C     6.0000    0    12.011  -12.340439   -4.892916   -2.228615
   2 C     6.0000    0    12.011  -10.508731   -6.946102   -1.390552
   3 H     1.0000    0     1.008  -11.760612   -4.112646   -4.051021
   4 H     1.0000    0     1.008  -14.245332   -5.647631   -2.445533
   5 C     6.0000    0    12.011   -7.969162   -5.841361   -0.746602
   6 H     1.0000    0     1.008  -10.285104   -8.385145   -2.849744
   7 H     1.0000    0     1.008  -11.280041   -7.904135    0.275869
   8 C     6.0000    0    12.011   -7.768889   -3.271668    0.058023
   9 N     7.0000    0    14.007   -9.872172   -1.779094    0.195704
  10 H     1.0000    0     1.008  -13.164605   -3.522076    1.521170
  11 H     1.0000    0     1.008  -13.583424   -1.237180   -0.868463
  12 C     6.0000    0    12.011   -9.763917    0.737321    1.304172
  13 C     6.0000    0    12.011   -7.295389    2.049299    0.671350
  14 H     1.0000    0     1.008   -9.983461    0.583902    3.366227
  15 H     1.0000    0     1.008  -11.377773    1.796124    0.590250
  16 C     6.0000    0    12.011   -5.080038    0.444428    1.558912
  17 H     1.0000    0     1.008   -7.260662    3.897523    1.580907
  18 H     1.0000    0     1.008   -7.187940    2.349248   -1.368874
  19 C     6.0000    0    12.011   -5.358431   -2.252340    0.712139
  20 H     1.0000    0     1.008   -4.968088    0.494974    3.626624
  21 H     1.0000    0     1.008   -3.298534    1.208870    0.865868
  22 C     6.0000    0    12.011   -5.815191   -7.285958   -0.906845
  23 C     6.0000    0    12.011   -3.275027   -3.821909    0.558823
  24 C     6.0000    0    12.011   -3.401364   -6.344746   -0.259539
  25 O     8.0000    0    15.999   -0.997544   -2.791536    1.254131
  26 C     6.0000    0    12.011    1.276815   -4.119093    1.126155
  27 C     6.0000    0    12.011   -1.145080   -7.785463   -0.383829
  28 C     6.0000    0    12.011    1.203140   -6.717590    0.281944
  29 O     8.0000    0    15.999    3.126796   -2.869265    1.730411
  30 C     6.0000    0    12.011    3.521795   -8.147949    0.088655
  31 C     6.0000    0    12.011    5.799775   -7.538674    1.346016
  32 C     6.0000    0    12.011    3.598498  -10.375421   -1.412810
  33 N     7.0000    0    14.007    5.612987  -11.844075   -1.693789
  34 C     6.0000    0    12.011    7.735399  -11.212018   -0.464837
  35 C     6.0000    0    12.011    7.889608   -9.072710    1.066416
  36 H     1.0000    0     1.008    1.946026  -10.937609   -2.480361
  37 H     1.0000    0     1.008    9.634464   -8.634932    2.040053
  38 H     1.0000    0     1.008    9.348116  -12.451305   -0.710530
  39 H     1.0000    0     1.008    5.888069   -5.892990    2.541625
  40 H     1.0000    0     1.008   -5.963427   -9.227159   -1.541278
  41 H     1.0000    0     1.008   -1.285771   -9.749482   -0.910530

--------------------------------
INTERNAL COORDINATES (ANGSTROEM)
--------------------------------
 C      0   0   0     0.000000000000     0.00000000     0.00000000
 C      1   0   0     1.517530513494     0.00000000     0.00000000
 C      2   1   0     1.522070039667   109.37119580     0.00000000
 H      2   1   3     1.093002117055   109.41730256   239.00060622
 H      2   1   3     1.090319326397   108.91727133   121.44008531
 C      3   2   1     1.504626616862   110.94260301   307.99500388
 H      3   2   1     1.090938972506   111.16915478   185.82499712
 H      3   2   1     1.096010963251   109.11471553    68.44158822
 C      6   3   2     1.428862244825   120.23181637    26.00109202
 N      9   6   3     1.366725628451   120.36218841   358.53238426
 H      1   2   3     1.100274730643   109.96793065   294.88790730
 H      1   2   3     1.089579569927   111.33320991   176.12032399
 C     10   9   6     1.456224232763   121.19117000   172.28089772
 C     13  10   9     1.516753220276   111.31632242    36.94994920
 H     13  10   9     1.100359104765   109.13703550   275.22326055
 H     13  10   9     1.089035920199   107.45056438   159.05320238
 C     14  13  10     1.521893462611   109.86755095   303.15840334
 H     14  13  10     1.090211825778   109.12801806   181.77400723
 H     14  13  10     1.092726121902   109.23500470    64.19688256
 C      9   6   3     1.427523979699   119.87667964   178.79426822
 H     17  14  13     1.096114941446   109.63856291   288.21621759
 H     17  14  13     1.089441572729   110.82238584   171.21432681
 C      6   3   2     1.375059549773   120.69088288   205.59251645
 C     20   9   6     1.382725043383   118.11551466   359.49993656
 C     24  20   9     1.405101064003   123.42699573     1.47114590
 O     24  20   9     1.373013635840   116.46224175   181.34882752
 C     26  24  20     1.395212202688   122.97140852   181.99919113
 C     25  24  20     1.418148827545   119.01403103   179.07508501
 C     28  25  24     1.409811980373   120.99787970   359.55672825
 O     27  26  24     1.223947225380   113.90354847   177.34837213
 C     29  28  25     1.445288465807   121.37727427   181.88662264
 C     31  29  28     1.414137830490   124.81799251   198.92493459
 C     31  29  28     1.422090691367   119.85846887    17.56091594
 N     33  31  29     1.327597565356   124.80006483   180.92527669
 C     34  33  31     1.340234845611   118.19407122     0.58485955
 C     32  31  29     1.379808250350   119.90879461   178.60657452
 H     33  31  29     1.082731131054   119.74932249     3.09344607
 H     36  32  31     1.082440655428   120.44582351   180.77795541
 H     35  34  33     1.084110383400   116.77739131   179.41769821
 H     32  31  29     1.077438068042   119.83718809   359.53386150
 H     23   6   3     1.083552565821   119.08735769     1.22495715
 H     28  25  24     1.078610304922   118.15661493   176.48762422

---------------------------
INTERNAL COORDINATES (A.U.)
---------------------------
 C      0   0   0     0.000000000000     0.00000000     0.00000000
 C      1   0   0     2.867717070373     0.00000000     0.00000000
 C      2   1   0     2.876295531618   109.37119580     0.00000000
 H      2   1   3     2.065474665030   109.41730256   239.00060622
 H      2   1   3     2.060404925411   108.91727133   121.44008531
 C      3   2   1     2.843332239679   110.94260301   307.99500388
 H      3   2   1     2.061575886857   111.16915478   185.82499712
 H      3   2   1     2.071160560320   109.11471553    68.44158822
 C      6   3   2     2.700158325819   120.23181637    26.00109202
 N      9   6   3     2.582737137984   120.36218841   358.53238426
 H      1   2   3     2.079217912989   109.96793065   294.88790730
 H      1   2   3     2.059006988277   111.33320991   176.12032399
 C     10   9   6     2.751864989502   121.19117000   172.28089772
 C     13  10   9     2.866248199065   111.31632242    36.94994920
 H     13  10   9     2.079377356973   109.13703550   275.22326055
 H     13  10   9     2.057979639179   107.45056438   159.05320238
 C     14  13  10     2.875961849340   109.86755095   303.15840334
 H     14  13  10     2.060201778683   109.12801806   181.77400723
 H     14  13  10     2.064953109776   109.23500470    64.19688256
 C      9   6   3     2.697629371236   119.87667964   178.79426822
 H     17  14  13     2.071357050632   109.63856291   288.21621759
 H     17  14  13     2.058746211367   110.82238584   171.21432681
 C      6   3   2     2.598485966903   120.69088288   205.59251645
 C     20   9   6     2.612971650508   118.11551466   359.49993656
 C     24  20   9     2.655256201448   123.42699573     1.47114590
 O     24  20   9     2.594619749877   116.46224175   181.34882752
 C     26  24  20     2.636568961786   122.97140852   181.99919113
 C     25  24  20     2.679912901202   119.01403103   179.07508501
 C     28  25  24     2.664158543226   120.99787970   359.55672825
 O     27  26  24     2.312925058341   113.90354847   177.34837213
 C     29  28  25     2.731199384890   121.37727427   181.88662264
 C     31  29  28     2.672333215244   124.81799251   198.92493459
 C     31  29  28     2.687361944283   119.85846887    17.56091594
 N     33  31  29     2.508795814583   124.80006483   180.92527669
 C     34  33  31     2.532676813344   118.19407122     0.58485955
 C     32  31  29     2.607459710486   119.90879461   178.60657452
 H     33  31  29     2.046065314363   119.74932249     3.09344607
 H     36  32  31     2.045516394981   120.44582351   180.77795541
 H     35  34  33     2.048671723567   116.77739131   179.41769821
 H     32  31  29     2.036062874860   119.83718809   359.53386150
 H     23   6   3     2.047617601109   119.08735769     1.22495715
 H     28  25  24     2.038278081528   118.15661493   176.48762422

------------------------------------------------------------------------------
                   ___                                                        
                  /   \      - P O W E R E D   B Y -                         
                 /     \                                                     
                 |  |  |   _    _      __       _____    __    __             
                 |  |  |  | |  | |    /  \     |  _  \  |  |  /  |          
                  \  \/   | |  | |   /    \    | | | |  |  | /  /          
                 / \  \   | |__| |  /  /\  \   | |_| |  |  |/  /          
                |  |  |   |  __  | /  /__\  \  |    /   |      \           
                |  |  |   | |  | | |   __   |  |    \   |  |\   \          
                \     /   | |  | | |  |  |  |  | |\  \  |  | \   \       
                 \___/    |_|  |_| |__|  |__|  |_| \__\ |__|  \__/        
                                                                              
                      - O R C A' S   B I G   F R I E N D -                    
                                      &                                       
                       - I N T E G R A L  F E E D E R -                       
                                                                              
 v1 FN, 2020, v2 2021, v3 2022-2024                                           
------------------------------------------------------------------------------


----------------------
SHARK INTEGRAL PACKAGE
----------------------

Number of atoms                             ...     42
Number of basis functions                   ...    684
Number of shells                            ...    312
Maximum angular momentum                    ...      2
Integral batch strategy                     ... SHARK/LIBINT Hybrid
RI-J (if used) integral strategy            ... SPLIT-RIJ (Revised 2003 algorithm where possible)
Printlevel                                  ...      1
Contraction scheme used                     ... SEGMENTED contraction
Prescreening option                         ... SCHWARTZ
   Thresh                                   ... 2.500e-11
   Tcut                                     ... 2.500e-12
   Tpresel                                  ... 2.500e-12 
Coulomb Range Separation                    ... NOT USED
Exchange Range Separation                   ... NOT USED
Multipole approximations                    ... NOT USED
Finite Nucleus Model                        ... NOT USED
CABS basis                                  ... NOT available
Auxiliary Coulomb fitting basis             ... AVAILABLE
   # of basis functions in Aux-J            ...   1374
   # of shells in Aux-J                     ...    450
   Maximum angular momentum in Aux-J        ...      4
Auxiliary J/K fitting basis                 ... NOT available
Auxiliary Correlation fitting basis         ... AVAILABLE
   # of basis functions in Aux-C            ...   2094
   # of shells in Aux-C                     ...    654
   Maximum angular momentum in Aux-C        ...      4
Auxiliary 'external' fitting basis          ... NOT available

Checking pre-screening integrals            ... done (  0.0 sec) Dimension = 312
Check shell pair data                       ... done (  0.0 sec)
Shell pair information
Shell pair cut-off parameter TPreSel        ...   2.5e-12
Total number of shell pairs                 ...     48828
Shell pairs after pre-screening             ...     32406
Total number of primitive shell pairs       ...    159912
Primitive shell pairs kept                  ...     69748
          la=0 lb=0:   9550 shell pairs
          la=1 lb=0:  10754 shell pairs
          la=1 lb=1:   3024 shell pairs
          la=2 lb=0:   5319 shell pairs
          la=2 lb=1:   3004 shell pairs
          la=2 lb=2:    755 shell pairs

Calculating one electron integrals          ... done (  0.1 sec)
Calculating RI/J V-Matrix + Cholesky decomp.... done (  0.5 sec)
Calculating RI/C V-Matrix + Cholesky decomp.... done (  1.6 sec)
Calculating Nuclear repulsion               ... done (  0.0 sec) ENN=   1942.136799023795 Eh

Diagonalization of the overlap matrix:
Smallest eigenvalue                        ... 3.474e-06
Time for diagonalization                   ...    0.035 sec
Threshold for overlap eigenvalues          ... 1.000e-07
Number of eigenvalues below threshold      ... 0
Time for construction of square roots      ...    0.113 sec
Total time needed                          ...    0.172 sec

-------------------
DFT GRID GENERATION
-------------------

General Integration Accuracy     IntAcc      ... 4.388
Radial Grid Type                 RadialGrid  ... OptM3 with GC (2021)
Angular Grid (max. ang.)         AngularGrid ... 4 (Lebedev-302)
Angular grid pruning method      GridPruning ... 4 (adaptive)
Weight generation scheme         WeightScheme... mBecke (2022)
Basis function cutoff            BFCut       ... 1.0000e-11
Integration weight cutoff        WCut        ... 1.0000e-14
Partially contracted basis set               ... off
Rotationally invariant grid construction     ... off
Angular grids for H and He will be reduced by one unit

Total number of grid points                  ...   200234
Total number of batches                      ...     3148
Average number of points per batch           ...       63
Average number of grid points per atom       ...     4767

--------------------
COSX GRID GENERATION
--------------------

GRIDX 1
-------
General Integration Accuracy     IntAcc      ... 3.816
Radial Grid Type                 RadialGrid  ... OptM3 with GC (2021)
Angular Grid (max. ang.)         AngularGrid ... 1 (Lebedev-50)
Angular grid pruning method      GridPruning ... 4 (adaptive)
Weight generation scheme         WeightScheme... mBecke (2022)
Basis function cutoff            BFCut       ... 1.0000e-11
Integration weight cutoff        WCut        ... 1.0000e-14
Partially contracted basis set               ... on
Rotationally invariant grid construction     ... off
Angular grids for H and He will be reduced by one unit

Total number of grid points                  ...    25424
Total number of batches                      ...      226
Average number of points per batch           ...      112
Average number of grid points per atom       ...      605
UseSFitting                                  ... on

GRIDX 2
-------
General Integration Accuracy     IntAcc      ... 4.020
Radial Grid Type                 RadialGrid  ... OptM3 with GC (2021)
Angular Grid (max. ang.)         AngularGrid ... 2 (Lebedev-110)
Angular grid pruning method      GridPruning ... 4 (adaptive)
Weight generation scheme         WeightScheme... mBecke (2022)
Basis function cutoff            BFCut       ... 1.0000e-11
Integration weight cutoff        WCut        ... 1.0000e-14
Partially contracted basis set               ... on
Rotationally invariant grid construction     ... off
Angular grids for H and He will be reduced by one unit

Total number of grid points                  ...    55232
Total number of batches                      ...      454
Average number of points per batch           ...      121
Average number of grid points per atom       ...     1315
UseSFitting                                  ... on

GRIDX 3
-------
General Integration Accuracy     IntAcc      ... 4.338
Radial Grid Type                 RadialGrid  ... OptM3 with GC (2021)
Angular Grid (max. ang.)         AngularGrid ... 3 (Lebedev-194)
Angular grid pruning method      GridPruning ... 4 (adaptive)
Weight generation scheme         WeightScheme... mBecke (2022)
Basis function cutoff            BFCut       ... 1.0000e-11
Integration weight cutoff        WCut        ... 1.0000e-14
Partially contracted basis set               ... on
Rotationally invariant grid construction     ... off
Angular grids for H and He will be reduced by one unit

Total number of grid points                  ...   120922
Total number of batches                      ...      973
Average number of points per batch           ...      124
Average number of grid points per atom       ...     2879
UseSFitting                                  ... on
Initializing property integral containers    ... done (  0.0 sec)

SHARK setup successfully completed in  11.9 seconds

Maximum memory used throughout the entire STARTUP-calculation: 139.7 MB
Occupation numbers will be reassigned to an Aufbau configuration
             **** ENERGY FILE WAS UPDATED (NMU-1.en.tmp) ****
Finished Guess after   1.3 sec
Maximum memory used throughout the entire GUESS-calculation: 88.9 MB
--------------------
CPCM SOLVATION MODEL
--------------------
CPCM parameters:
  Epsilon                                         ...      80.1510
  Refrac                                          ...       1.3328
  Rsolv                                           ...       1.3000
  Surface type                                    ... GAUSSIAN VDW
  Discretization scheme                           ... Constant charge density
    Threshold for H atoms                         ...       5.0000 (charges/Ang^2)
    Threshold for non-H atoms                     ...       5.0000 (charges/Ang^2)
  Epsilon function type                           ...         CPCM
Solvent:                                          ... WATER
Radii:
  Scheme                                          ... Element-dependent radii
  Radius for C  used is    3.8550 Bohr (=   2.0400 Ang.)
  Radius for H  used is    2.4944 Bohr (=   1.3200 Ang.)
  Radius for N  used is    3.5149 Bohr (=   1.8600 Ang.)
  Radius for O  used is    3.4469 Bohr (=   1.8240 Ang.)
Calculating surface                               ...        done! (  0.0s)
Cavity surface points                             ...         3533
Cavity Volume                                     ...    2460.1106
Cavity Surface-area                               ...    1212.1853
Calculating surface distance matrix               ...        done! (  0.0s)
Performing Cholesky decomposition & store         ...        done! (  1.2s)
Overall time for CPCM initialization              ...                 1.2s

----------------------------------------D-I-I-S--------------------------------------------
Iteration    Energy (Eh)           Delta-E    RMSDP     MaxDP     DIISErr   Damp  Time(sec)
-------------------------------------------------------------------------------------------
               ***  Starting incremental Fock matrix formation  ***
                              *** Initializing SOSCF ***
---------------------------------------S-O-S-C-F--------------------------------------
Iteration    Energy (Eh)           Delta-E    RMSDP     MaxDP     MaxGrad    Time(sec)
--------------------------------------------------------------------------------------
    1    -1032.6974584493982547     0.00e+00  3.89e-04  3.57e-02  1.39e-04    43.3
               *** Restarting incremental Fock matrix formation ***
    2    -1032.6975434559508358    -8.50e-05  7.50e-05  5.70e-03  1.77e-04    38.4
    3    -1032.6975511576215467    -7.70e-06  2.84e-05  2.06e-03  1.70e-04    27.0
    4    -1032.6975516560291908    -4.98e-07  2.67e-05  1.97e-03  1.48e-04    25.6
    5    -1032.6975535614697037    -1.91e-06  6.14e-06  3.79e-04  5.39e-05    23.1
    6    -1032.6975535547494474     6.72e-09  4.17e-06  3.15e-04  4.31e-05    20.7
                 **** Energy Check signals convergence ****

               *****************************************************
               *                     SUCCESS                       *
               *           SCF CONVERGED AFTER   6 CYCLES          *
               *****************************************************

Recomputing exchange energy using gridx3       ... done (   62.825 sec)
Old exchange energy                            :    -27.995386223 Eh
New exchange energy                            :    -27.995373077 Eh
Exchange energy change after final integration :      0.000013146 Eh
Total energy after final integration           :  -1032.697540408 Eh
             **** ENERGY FILE WAS UPDATED (NMU-1.en.tmp) ****

----------------
TOTAL SCF ENERGY
----------------

Total Energy       :      -1032.69754040849489 Eh          -28101.12871 eV

Components:
Nuclear Repulsion  :       1942.13679902379545 Eh           52848.22905 eV
Electronic Energy  :      -2974.80622463442978 Eh          -80948.59272 eV
One Electron Energy:      -5260.33672151099927 Eh         -143141.03934 eV
Two Electron Energy:       2285.53049687656949 Eh           62192.44662 eV
CPCM Dielectric    :         -0.02812794411531 Eh              -0.76540 eV

Virial components:
Potential Energy   :      -2060.86007060565817 Eh          -56078.85352 eV
Kinetic Energy     :       1028.16253019716328 Eh           27977.72481 eV
Virial Ratio       :          2.00441079117176

DFT components:
N(Alpha)           :       83.999951889512 electrons
N(Beta)            :       83.999951889512 electrons
N(Total)           :      167.999903779024 electrons
E(X)               :     -111.264943297894 Eh       
E(C)               :       -6.755200284284 Eh       
E(XC)              :     -118.020143582178 Eh       

CPCM Solvation Model Properties:
Surface-charge          :         -0.03916586206133
Corrected charge        :          0.00000000000000
Outlying charge corr.   :          0.00007905456843 Eh               0.00215 eV
Free-energy (cav+disp)  :  This term is not implemented in the current solvation scheme

---------------
SCF CONVERGENCE
---------------

  Last Energy change         ...   -6.7203e-09  Tolerance :   1.0000e-08
  Last MAX-Density change    ...    3.1466e-04  Tolerance :   1.0000e-07
  Last RMS-Density change    ...    4.1740e-06  Tolerance :   5.0000e-09
  Last DIIS Error            ...    2.3553e-03  Tolerance :   5.0000e-07
  Last Orbital Gradient      ...    4.3133e-05  Tolerance :   1.0000e-05
  Last Orbital Rotation      ...    1.0267e-04  Tolerance :   1.0000e-05


Total SCF time: 0 days 0 hours 4 min 4 sec 
Finished LeanSCF after 244.2 sec

Maximum memory used throughout the entire LEANSCF-calculation: 169.8 MB

------------------------------------------------------------------------------
                         ORCA PROPERTY INTEGRAL CALCULATIONS
------------------------------------------------------------------------------

GBWName                                   ... NMU-1.gbw
Number of atoms                           ...     42
Number of basis functions                 ...    684
Max core memory                           ...   1024 MB

Dipole integrals                          ... YES
Quadrupole integrals                      ...  NO
Linear momentum integrals                 ... YES
Angular momentum integrals                ... YES
Higher moments length integrals           ...  NO
Higher moments velocity integrals         ...  NO
Kinetic energy integrals                  ...  NO
GIAO right hand sides                     ...  NO
GIAO dipole derivative integrals          ...  NO
SOC integrals                             ...  NO
EPR diamagnetic integrals (GIAO)          ...  NO
EPR gauge integrals                       ...  NO
Field gradient integrals                  ...  NO (   0 nuclei)
Spin-dipole/Fermi contact integrals       ...  NO (   0 nuclei)
Contact density integrals                 ...  NO (   0 nuclei)
Nucleus-orbit integrals                   ...  NO (   0 nuclei)
Geometric perturbations                   ...  NO (  42 nuclei)

Choice of electric origin   ... Center of mass
Position of electric origin ... ( -2.6977, -5.0974,  0.1083) 
Choice of magnetic origin   ... GIAO
Position of magnetic origin ... (  0.0000,  0.0000,  0.0000) 

Calculating integrals                     ... Electric Dipole (Length)     done (  0.2 sec)
Calculating integrals                     ... Linear Momentum              done (  0.5 sec)
Calculating integrals                     ... Angular Momentum  (ElOri)    done (  0.4 sec)

Property integrals calculated in   1.2 sec

Maximum memory used throughout the entire PROPINT-calculation: 91.8 MB
------------------------------------------------------------------------------
                        ORCA TD-DFT/TDA CALCULATION
------------------------------------------------------------------------------

Input orbitals are from        ... NMU-1.gbw
CI-vector output               ... NMU-1.cis
Solver                         ... FN-2001
Tamm-Dancoff approximation     ... operative
CIS-Integral strategy          ... AO-integrals
Integral handling              ... AO integral Direct
Max. core memory used          ... 512 MB
Reference state                ... RHF
Generation of triplets         ... off
Follow IRoot                   ... off
Number of operators            ... 1
Orbital ranges used for CIS calculation:
 Operator 0:  Orbitals  24... 83  to  84...683
XAS localization array:
 Operator 0:  Orbitals  -1... -1

-------------------
XC-INTEGRATION GRID
-------------------

General Integration Accuracy     IntAcc      ... 3.467
Radial Grid Type                 RadialGrid  ... OptM3 with GC (2021)
Angular Grid (max. ang.)         AngularGrid ... 1 (Lebedev-50)
Angular grid pruning method      GridPruning ... 4 (adaptive)
Weight generation scheme         WeightScheme... mBecke (2022)
Basis function cutoff            BFCut       ... 1.0000e-11
Integration weight cutoff        WCut        ... 1.0000e-14
Partially contracted basis set               ... off
Rotationally invariant grid construction     ... off
Angular grids for H and He will be reduced by one unit

Total number of grid points                  ...    29191
Total number of batches                      ...      475
Average number of points per batch           ...       61
Average number of grid points per atom       ...      695

---------------------
COSX-INTEGRATION GRID
---------------------

General Integration Accuracy     IntAcc      ... 3.067
Radial Grid Type                 RadialGrid  ... OptM3 with GC (2021)
Angular Grid (max. ang.)         AngularGrid ... 1 (Lebedev-50)
Angular grid pruning method      GridPruning ... 4 (adaptive)
Weight generation scheme         WeightScheme... mBecke (2022)
Basis function cutoff            BFCut       ... 1.0000e-11
Integration weight cutoff        WCut        ... 1.0000e-14
Partially contracted basis set               ... on
Rotationally invariant grid construction     ... off
Angular grids for H and He will be reduced by one unit

Total number of grid points                  ...    13510
Total number of batches                      ...      134
Average number of points per batch           ...      100
Average number of grid points per atom       ...      322

---------------
TD-DFT XC SETUP
---------------

DFT calculation                         ... on
Name of the grid file                   ... NMU-1.grid_cis.tmp
RI-approximation                        ... on
Aux-basis dimension                     ... 2094
Exchange functional (TD-DFT)            ... B88
   X-Alpha parameter    XAlpha (TD-DFT) ...  0.666667
   Becke's b parameter  XBeta (TD-DFT)  ...  0.004200
Correlation functional (TD-DFT)         ... LYP
 LDA part of GGA corr.  LDAOpt (TD-DFT) ... VWN-5
Hybrid DFT                              ... on
   Exchange mixing (TD-DFT)             ...  0.200
   GGA exch. scaling (TD-DFT)           ...  0.720
   GGA corr. scaling (TD-DFT)           ...  0.810

Building densities             ... done
Calculating rho(r) on the grid ... done
Building xc-kernel on the grid ... done
                    *** TD-DFT CALCULATION INITIALIZED ***

-----------------------------
    LR-CPCM (equilibrium)
-----------------------------

Setting up LR-CPCM             ... done

------------------------
DAVIDSON-DIAGONALIZATION
------------------------

Dimension of the eigenvalue problem            ...  36000
Number of roots to be determined               ...      1
Maximum size of the expansion space            ...     10
Maximum number of iterations                   ...    100
Convergence tolerance for the residual         ...    2.500e-07
Convergence tolerance for the energies         ...    2.500e-07
Orthogonality tolerance                        ...    1.000e-14
Level Shift                                    ...    0.000e+00
Constructing the preconditioner                ... o.k.
Building the initial guess                     ... o.k.
Number of trial vectors determined             ...     10


                       ****Iteration    0****
   Time for iteration     :  TOTAL=23.1 TRAFO=0.1 RIJ=3.9 COSX=9.0 XC=1.3
   Size of expansion space: 3
   Lowest Energy          :     0.117442168348
   Maximum Energy change  :     0.117442168348 (vector 0)
   Maximum residual norm  :     0.017917391584

                       ****Iteration    1****
   Time for iteration     :  TOTAL=20.6 TRAFO=1.3 RIJ=2.9 COSX=8.1 XC=0.5
   Size of expansion space: 4
   Lowest Energy          :     0.101104978001
   Maximum Energy change  :     0.016337190347 (vector 0)
   Maximum residual norm  :     0.000596031465

                       ****Iteration    2****
   Time for iteration     :  TOTAL=18.5 TRAFO=0.0 RIJ=2.7 COSX=7.5 XC=0.5
   Size of expansion space: 5
   Lowest Energy          :     0.100482416568
   Maximum Energy change  :     0.000622561433 (vector 0)
   Maximum residual norm  :     0.000058507225

                       ****Iteration    3****
   Time for iteration     :  TOTAL=18.5 TRAFO=0.4 RIJ=2.5 COSX=7.3 XC=0.5
   Size of expansion space: 6
   Lowest Energy          :     0.100388380354
   Maximum Energy change  :     0.000094036215 (vector 0)
   Maximum residual norm  :     0.000007088187

                       ****Iteration    4****
   Time for iteration     :  TOTAL=18.7 TRAFO=0.0 RIJ=2.7 COSX=7.6 XC=0.5
   Size of expansion space: 7
   Lowest Energy          :     0.100380755638
   Maximum Energy change  :     0.000007624716 (vector 0)
   Maximum residual norm  :     0.000000620790

                       ****Iteration    5****
   Time for iteration     :  TOTAL=19.0 TRAFO=0.0 RIJ=3.0 COSX=7.6 XC=0.5
   Size of expansion space: 8
   Lowest Energy          :     0.100380129641
   Maximum Energy change  :     0.000000625997 (vector 0)
   Maximum residual norm  :     0.000000073432

      *** CONVERGENCE OF RESIDUAL NORM REACHED ***

Storing the converged CI vectors               ... NMU-1.cis1

                 *** DAVIDSON DONE ***

Total time for solving the CIS problem:   120.050sec

------------------------------------
TD-DFT/TDA EXCITED STATES (SINGLETS)
------------------------------------

the weight of the individual excitations are printed if larger than 1.0e-02

STATE  1:  E=   0.100380 au      2.731 eV    22030.9 cm**-1 <S**2> =   0.000000 Mult 1
    83a ->  84a  :     0.970383 (c=  0.98508032)


-----------------------------
TD-DFT/TDA-EXCITATION SPECTRA
-----------------------------

Center of mass = ( -2.6977, -5.0974,  0.1083)
Generating CIS transition densities           ... done

----------------------------------------------------------------------------------------------------
                     ABSORPTION SPECTRUM VIA TRANSITION ELECTRIC DIPOLE MOMENTS    
----------------------------------------------------------------------------------------------------
     Transition      Energy     Energy  Wavelength fosc(D2)      D2        DX        DY        DZ   
                      (eV)      (cm-1)    (nm)                 (au**2)    (au)      (au)      (au)  
----------------------------------------------------------------------------------------------------
  0-1A  ->  1-1A    2.731482   22030.9   453.9   1.400224080  20.92382   4.31898  -1.50551   0.06046

----------------------------------------------------------------------------------------------------
                     ABSORPTION SPECTRUM VIA TRANSITION VELOCITY DIPOLE MOMENTS    
----------------------------------------------------------------------------------------------------
     Transition      Energy     Energy  Wavelength fosc(P2)      P2        PX        PY        PZ   
                      (eV)      (cm-1)    (nm)                 (au**2)    (au)      (au)      (au)  
----------------------------------------------------------------------------------------------------
  0-1A  ->  1-1A    2.731482   22030.9   453.9   0.740448362   0.11149  -0.30506   0.13559   0.00644

------------------------------------------------------------------------------------------
                     CD SPECTRUM VIA TRANSITION ELECTRIC DIPOLE MOMENTS    
------------------------------------------------------------------------------------------
     Transition      Energy     Energy  Wavelength    R        MX        MY        MZ   
                      (eV)      (cm-1)    (nm)   (1e40*cgs)   (au)      (au)      (au)  
------------------------------------------------------------------------------------------
  0-1A  ->  1-1A    2.731482   22030.9   453.9  -35.02332   0.04498   0.06909  -0.26380

------------------------------------------------------------------------------------------
                     CD SPECTRUM VIA TRANSITION VELOCITY DIPOLE MOMENTS    
------------------------------------------------------------------------------------------
     Transition      Energy     Energy  Wavelength    R        MX        MY        MZ   
                      (eV)      (cm-1)    (nm)   (1e40*cgs)   (au)      (au)      (au)  
------------------------------------------------------------------------------------------
  0-1A  ->  1-1A    2.731482   22030.9   453.9  -28.41973   0.04498   0.06909  -0.26380

Total run time:      121.487 sec

           *** ORCA-CIS/TD-DFT FINISHED WITHOUT ERROR ***
-----------------------
CIS/TD-DFT TOTAL ENERGY
-----------------------

    E(SCF)  =  -1032.697540408 Eh
    DE(CIS) =      0.100380130 Eh (Root  1)
    ----------------------------- ---------
    E(tot)  =  -1032.597160279 Eh


------------------------
TD-DFT GRADIENT XC SETUP
------------------------

Building densities                     ... done
Calculating rho(r) on the grid         ... done
Building xc-kernel on the grid         ... done
Building xc 3rd derivative on the grid ... done
                *** TD-DFT GRADIENT CALCULATION INITIALIZED ***

--------------------------
TD-DFT/TDA RELAXED DENSITY
--------------------------

Reference wavefunction             ... RHF
State of interest                  ... 1
Basis dimension                    ... 684
DFT-XC contribution needed         ... YES
RI-approximation                   ... YES
Do Coulomb                         ... YES
Do Exchange                        ... YES
Need Hartree-Fock Exchange         ... YES
facj, facx                         ...  2.000, -0.200
Conventional                       ... NO
Range separation                   ... NO
Triplet state                      ... NO
Spin Flip                          ... NO
CIS-vectors being read from        ... NMU-1.cis
 => Number of Vectors found: 1
 => Orbital Window: 24...83 -> 84...683

Reading the CIS file                     ... done
Norm of the CI vector                    ... 1.000000000
Reading the CPCM file                    ... done
Making the CIS (pseudo)densities         ... done
Making operators G(D) and Q(T)           ... (SHARK-ok)done
Transforming the Fock operators          ... done
Making the frozen-core relaxed density   ... done
Constructing the G(H) operator           ... (SHARK-ok)done
Transforming the G(H) operator           ... done
Calculating the CIS Lagrangian           ... done
Solving the Z-vector equations           ... 

Using XC Grid                  ... (NMU-1.grid_cpscf.tmp) 
Recalculating density on grid  ... (NMU-1.grho_cpscf0.tmp) done
Calculating the xc-kernel      ... (NMU-1.fxc_cpscf0.tmp) done

-------------------
SHARK CP-SCF DRIVER
-------------------

Dimension of the orbital basis          ...    684
Dimension of the CPSCF-problem          ...  50400
Number of operators                     ...      1
Max. number of iterations               ...    128
Convergence Tolerance                   ... 1.0e-04
Number of perturbations                 ...      1
Perturbation type                       ... REAL

----------------------------
POPLE LINEAR EQUATION SOLVER
----------------------------

  ITERATION   0:   ||err||_max =   1.8984e+00 (  18.4 sec)
  ITERATION   1:   ||err||_max =   1.0861e-01 (  18.2 sec)
  ITERATION   2:   ||err||_max =   2.2177e-02 (  18.6 sec)
  ITERATION   3:   ||err||_max =   8.1783e-03 (  23.2 sec)
  ITERATION   4:   ||err||_max =   3.6305e-03 (  19.1 sec)
  ITERATION   5:   ||err||_max =   1.3499e-03 (  18.8 sec)
  ITERATION   6:   ||err||_max =   3.6667e-04 (  18.6 sec)
  ITERATION   7:   ||err||_max =   1.2478e-04 (  18.9 sec)
  ITERATION   8:   ||err||_max =   4.9771e-05 (  18.6 sec)

Finalizing the relaxed density           ... done
Storing the relaxed density              ... done
Constructing the G(Z) operator           ... (SHARK-ok)done
Adding the CPCM contribution             ... done
Adding the XC terms                      ... done
Transforming the G(Z) operator           ... done
Making the W-matrix                      ... done
Finalizing the W-matrix                  ... done
Transforming the W-matrix                ... done
Nuc. rep. gradient        (SHARK) ... done (  0.0 sec)
HCore & Overlap gradient  (SHARK) ... done (  1.6 sec)
Split-RIJ-J gradient      (SHARK) ... done ( 11.1 sec)
COSX-gradient                     ... done ( 95.9 sec)
CPCM gradient                     ... done ( 10.6 sec)
Dispersion correction             ... done (  0.0 sec)

-------------------
DISPERSION GRADIENT
-------------------

   1   C   :   -0.000804028    0.000047146   -0.000049560
   2   C   :   -0.000634103   -0.000223224   -0.000354269
   3   C   :   -0.000456880   -0.000594022   -0.000232857
   4   H   :   -0.000259206   -0.000010245   -0.000421378
   5   H   :   -0.000324209   -0.000100441   -0.000155197
   6   C   :   -0.000135905   -0.000710950   -0.000193234
   7   H   :   -0.000138318   -0.000334289   -0.000193412
   8   H   :   -0.000247447   -0.000397163    0.000109775
   9   C   :   -0.000011062   -0.000088486    0.000034171
  10   N   :   -0.000559560    0.000361175    0.000103713
  11   H   :   -0.000439377   -0.000019705    0.000227409
  12   H   :   -0.000397332    0.000159876   -0.000060453
  13   C   :   -0.000337318    0.000694767    0.000245547
  14   C   :    0.000046772    0.000771790    0.000053505
  15   H   :   -0.000225942    0.000257989    0.000366196
  16   H   :   -0.000266194    0.000333823    0.000034950
  17   C   :    0.000275406    0.000705345    0.000244293
  18   H   :    0.000013789    0.000373560    0.000046362
  19   H   :    0.000046906    0.000435187   -0.000236710
  20   C   :    0.000313916    0.000363077    0.000191138
  21   H   :    0.000171733    0.000265903    0.000368675
  22   H   :    0.000221524    0.000357870    0.000023677
  23   C   :    0.000000684   -0.000735996   -0.000206759
  24   C   :    0.000299964    0.000033593    0.000083742
  25   C   :    0.000002562   -0.000431357   -0.000106861
  26   O   :    0.000391028    0.000325700    0.000168125
  27   C   :    0.000380901    0.000545691    0.000224960
  28   C   :   -0.000098893   -0.000455466   -0.000118319
  29   C   :    0.000049915    0.000100975    0.000055075
  30   O   :    0.000352902    0.000627886    0.000223889
  31   C   :    0.000255967   -0.000186892   -0.000036615
  32   C   :    0.000603196    0.000075484    0.000314267
  33   C   :    0.000103354   -0.000565535   -0.000388428
  34   N   :    0.000208007   -0.000533270   -0.000313104
  35   C   :    0.000469026   -0.000363398   -0.000078203
  36   C   :    0.000606491   -0.000107008    0.000169650
  37   H   :   -0.000097199   -0.000287280   -0.000268029
  38   H   :    0.000290273    0.000047862    0.000145001
  39   H   :    0.000237763   -0.000201439   -0.000050376
  40   H   :    0.000231135    0.000202417    0.000248117
  41   H   :   -0.000031665   -0.000395345   -0.000129121
  42   H   :   -0.000108575   -0.000345603   -0.000089353

Difference to translation invariance:
           :   -0.0000000000   -0.0000000000   -0.0000000000

Difference to rotation invariance:
           :    0.0000000000   -0.0000000000   -0.0000000000

Norm of the Dispersion gradient    ...    0.0036112251
RMS gradient                       ...    0.0003217135
MAX gradient                       ...    0.0008040278

                 ---------------------------
                 EXCITED STATE GRADIENT DONE
                 ---------------------------

------------------
CARTESIAN GRADIENT
------------------

   1   C   :   -0.000173810   -0.000077634    0.000102372
   2   C   :    0.000165789    0.000071167   -0.000042233
   3   C   :   -0.000108781   -0.000101590    0.000025660
   4   H   :   -0.000201637   -0.000079959   -0.000083681
   5   H   :    0.000004793    0.000025847    0.000009095
   6   C   :   -0.000047218   -0.000167920   -0.000020300
   7   H   :   -0.000032132   -0.000001809   -0.000016049
   8   H   :    0.000007923   -0.000081876   -0.000074653
   9   C   :   -0.000014348   -0.000017665   -0.000107023
  10   N   :   -0.000018076    0.000025641    0.000107817
  11   H   :   -0.000069178    0.000076723   -0.000056988
  12   H   :   -0.000013575   -0.000011593   -0.000002256
  13   C   :    0.000010390    0.000107471    0.000097185
  14   C   :   -0.000048967   -0.000055144   -0.000129637
  15   H   :   -0.000127570    0.000082327   -0.000050190
  16   H   :   -0.000007092    0.000019052   -0.000002429
  17   C   :   -0.000046501   -0.000043080    0.000117370
  18   H   :   -0.000017448   -0.000029120    0.000044954
  19   H   :    0.000059717    0.000180976    0.000048743
  20   C   :    0.000305229    0.000088999    0.000111635
  21   H   :    0.000048827    0.000091632   -0.000024811
  22   H   :   -0.000013862    0.000088567    0.000037275
  23   C   :    0.000009807   -0.000082254   -0.000004342
  24   C   :   -0.000206654    0.000032632    0.000025151
  25   C   :   -0.000097569   -0.000066325   -0.000048973
  26   O   :   -0.000108014    0.000038996   -0.000057661
  27   C   :    0.000442461    0.000041128    0.000029857
  28   C   :    0.000274299    0.000137681    0.000140011
  29   C   :    0.000037337   -0.000199540   -0.000001947
  30   O   :   -0.000059888   -0.000190955    0.000034737
  31   C   :   -0.000102880    0.000013393   -0.000056545
  32   C   :   -0.000164250   -0.000057218   -0.000108605
  33   C   :    0.000099993    0.000151286    0.000061516
  34   N   :   -0.000086135   -0.000012698   -0.000026211
  35   C   :    0.000140281   -0.000075872    0.000002543
  36   C   :    0.000093175    0.000023347    0.000064941
  37   H   :   -0.000058967   -0.000115135   -0.000041270
  38   H   :   -0.000020374    0.000049848    0.000028477
  39   H   :   -0.000009667   -0.000013735    0.000000415
  40   H   :    0.000137464    0.000117820    0.000107842
  41   H   :   -0.000013709    0.000005363   -0.000001782
  42   H   :   -0.000002356   -0.000056836   -0.000076286

Difference to translation invariance:
           :   -0.0000331745   -0.0000680627    0.0001637221

Difference to rotation invariance:
           :   -0.0004020331   -0.0003090626    0.0007478704

Norm of the Cartesian gradient     ...    0.0010954621
RMS gradient                       ...    0.0000975915
MAX gradient                       ...    0.0004424610

------------------------------------------------------------------------------
                  RELAXED CIS/TDA DENSITY POPULATION ANALYSIS
                                   IROOT 1
------------------------------------------------------------------------------
------------------------------------------------------------------------------
                           ORCA POPULATION ANALYSIS
------------------------------------------------------------------------------
Input electron density              ... NMU-1.cispre.singlet.iroot1
BaseName (.gbw .S,...)              ... NMU-1

-------
TIMINGS
-------

Total TD-DFT gradient time  ....      499.521 sec

Fock matrix formation       ....     137.152 sec  ( 27.5%)
  Coulomb formation         ....     127.091 sec  ( 92.7% of F)
  XC integration            ....      10.061 sec  (  7.3% of F)
Z-vector equation           ....     173.366 sec  ( 34.7%)
Densities                   ....       0.000 sec  (  0.0%)
One electron gradient       ....       1.643 sec  (  0.3%)
Two electron gradient       ....       0.000 sec  (  0.0%)
RI-J Coulomb gradient       ....      11.128 sec  (  2.2%)
COSX gradient               ....      27.664 sec  (  5.5%)
XC gradient                 ....      95.866 sec  ( 19.2%)
CPCM gradient               ....      10.562 sec  (  2.1%)
   A-Matrix (El+Nuc)        ....       0.248 sec  (  0.0%)
   Potential                ....      10.314 sec  (  2.1%)

Maximum memory used throughout the entire CIS-calculation: 348.7 MB
=> NOW LEAVING ORCA_CIS


-------------------------------------------------------------------------------
                          DFT DISPERSION CORRECTION                            
                                                                               
                              DFTD3 V3.1  Rev 1                                
                          USING Becke-Johnson damping                          
-------------------------------------------------------------------------------
-------------------------   ----------------
Dispersion correction           -0.098131266
-------------------------   ----------------


-------------------------   --------------------
FINAL SINGLE POINT ENERGY     -1032.695291544918
-------------------------   --------------------

------------------------------------------------------------------------------
                         ORCA GEOMETRY RELAXATION STEP
------------------------------------------------------------------------------

Reading the OPT-File                    .... done
Getting information on internals        .... done
Copying old internal coords+grads       .... done
Making the new internal coordinates     .... (2022 redundants) done
Validating the new internal coordinates .... (2022 redundants) done
Calculating the B-matrix                .... done
Calculating the G,G- and P matrices     .... done
Transforming gradient to internals      .... done
Projecting the internal gradient        .... done
Number of atoms                         ....  42
Number of internal coordinates          .... 241
Current Energy                          .... -1032.695291545 Eh
Current gradient norm                   ....     0.001095462 Eh/bohr
Maximum allowed component of the step   ....  0.300
Current trust radius                    ....  0.300
Updating the Hessian (BFGS)             .... done
Forming the augmented Hessian           .... done
Diagonalizing the augmented Hessian     .... done
Last element of RFO vector              ....  0.999774813
Lowest eigenvalues of augmented Hessian:
 -0.000012695  0.015156538  0.016360998  0.017506684  0.018103508
Length of the computed step             ....  0.021225614
The final length of the internal step   ....  0.021225614
Converting the step to Cartesian space:
 Initial RMS(Int)=    0.0013672620
Transforming coordinates:
 Iter   0:  RMS(Cart)=    0.0049337954 RMS(Int)=    0.0013668831
done
Storing new coordinates                 .... done
The predicted energy change is          ....    -0.000006350
Previously predicted energy change      ....    -0.000095010
Actually observed energy change         ....    -0.000064181
Ratio of predicted to observed change   ....     0.675512420
New trust radius                        ....     0.300000000

                                .--------------------.
          ----------------------|Geometry convergence|-------------------------
          Item                value                   Tolerance       Converged
          ---------------------------------------------------------------------
          Energy change      -0.0000641806            0.0000050000      NO
          RMS gradient        0.0000886627            0.0001000000      YES
          MAX gradient        0.0003804964            0.0003000000      NO
          RMS step            0.0013672620            0.0020000000      YES
          MAX step            0.0045896306            0.0040000000      NO
          ........................................................
          Max(Bonds)      0.0005      Max(Angles)    0.05
          Max(Dihed)        0.26      Max(Improp)    0.00
          ---------------------------------------------------------------------

The optimization has not yet converged - more geometry cycles are needed


    ---------------------------------------------------------------------------
                         Redundant Internal Coordinates
                            (Angstroem and degrees)

        Definition                    Value    dE/dq     Step     New-Value
    ----------------------------------------------------------------------------
     1. B(C   1,C   0)                1.5175  0.000118 -0.0002    1.5173   
     2. B(C   2,C   1)                1.5221  0.000126 -0.0003    1.5218   
     3. B(H   3,C   1)                1.0930 -0.000015  0.0000    1.0930   
     4. B(H   4,C   1)                1.0903 -0.000015  0.0000    1.0903   
     5. B(C   5,C   2)                1.5046  0.000234 -0.0004    1.5042   
     6. B(H   6,C   2)                1.0909  0.000005 -0.0000    1.0909   
     7. B(H   7,C   2)                1.0960 -0.000023  0.0000    1.0960   
     8. B(C   8,C   5)                1.4289  0.000294 -0.0004    1.4284   
     9. B(N   9,C   8)                1.3667  0.000298 -0.0004    1.3663   
    10. B(N   9,C   0)                1.4572  0.000234 -0.0004    1.4568   
    11. B(H  10,C   0)                1.1003 -0.000051  0.0001    1.1003   
    12. B(H  11,C   0)                1.0896  0.000001 -0.0000    1.0896   
    13. B(C  12,N   9)                1.4562  0.000193 -0.0004    1.4558   
    14. B(C  13,C  12)                1.5168  0.000074 -0.0002    1.5165   
    15. B(H  14,C  12)                1.1004 -0.000048  0.0001    1.1004   
    16. B(H  15,C  12)                1.0890  0.000018 -0.0000    1.0890   
    17. B(C  16,C  13)                1.5219  0.000152 -0.0003    1.5216   
    18. B(H  17,C  13)                1.0902 -0.000008  0.0000    1.0902   
    19. B(H  18,C  13)                1.0927 -0.000010  0.0000    1.0927   
    20. B(C  19,C  16)                1.5030  0.000265 -0.0004    1.5026   
    21. B(C  19,C   8)                1.4275  0.000380 -0.0005    1.4270   
    22. B(H  20,C  16)                1.0961 -0.000028  0.0000    1.0961   
    23. B(H  21,C  16)                1.0894  0.000015 -0.0000    1.0894   
    24. B(C  22,C   5)                1.3751  0.000173 -0.0002    1.3748   
    25. B(C  23,C  19)                1.3827  0.000230 -0.0003    1.3824   
    26. B(C  24,C  23)                1.4051  0.000201 -0.0002    1.4049   
    27. B(C  24,C  22)                1.4132  0.000194 -0.0002    1.4129   
    28. B(O  25,C  23)                1.3730  0.000200 -0.0003    1.3727   
    29. B(C  26,O  25)                1.3952  0.000362 -0.0005    1.3948   
    30. B(C  27,C  24)                1.4181  0.000348 -0.0005    1.4177   
    31. B(C  28,C  26)                1.4463 -0.000046 -0.0000    1.4463   
    32. B(C  28,C  27)                1.4098 -0.000005 -0.0001    1.4097   
    33. B(O  29,C  26)                1.2239 -0.000142  0.0001    1.2240   
    34. B(C  30,C  28)                1.4453 -0.000015 -0.0001    1.4452   
    35. B(C  31,C  30)                1.4141  0.000082 -0.0002    1.4140   
    36. B(C  32,C  30)                1.4221  0.000003 -0.0001    1.4220   
    37. B(N  33,C  32)                1.3276  0.000044 -0.0001    1.3275   
    38. B(C  34,N  33)                1.3402  0.000101 -0.0001    1.3401   
    39. B(C  35,C  34)                1.3946  0.000074 -0.0001    1.3945   
    40. B(C  35,C  31)                1.3798  0.000064 -0.0001    1.3797   
    41. B(H  36,C  32)                1.0827  0.000104 -0.0002    1.0826   
    42. B(H  37,C  35)                1.0824  0.000003 -0.0000    1.0824   
    43. B(H  38,C  34)                1.0841  0.000001 -0.0000    1.0841   
    44. B(H  39,C  31)                1.0774  0.000160 -0.0003    1.0772   
    45. B(H  40,C  22)                1.0836 -0.000005 -0.0000    1.0835   
    46. B(H  41,C  27)                1.0786  0.000075 -0.0001    1.0785   
    47. A(C   1,C   0,H  10)          109.97  0.000008   -0.00    109.97   
    48. A(C   1,C   0,N   9)          111.77  0.000036   -0.05    111.73   
    49. A(N   9,C   0,H  11)          107.33  0.000025    0.00    107.33   
    50. A(H  10,C   0,H  11)          107.28 -0.000040    0.03    107.32   
    51. A(C   1,C   0,H  11)          111.33 -0.000019    0.02    111.35   
    52. A(N   9,C   0,H  10)          109.00 -0.000012   -0.00    109.00   
    53. A(C   2,C   1,H   3)          110.36  0.000007   -0.02    110.34   
    54. A(C   0,C   1,H   3)          109.42  0.000062   -0.03    109.38   
    55. A(C   2,C   1,H   4)          110.98 -0.000009    0.03    111.00   
    56. A(H   3,C   1,H   4)          107.76 -0.000055    0.04    107.80   
    57. A(C   0,C   1,H   4)          108.92 -0.000043    0.03    108.95   
    58. A(C   0,C   1,C   2)          109.37  0.000038   -0.05    109.33   
    59. A(C   5,C   2,H   7)          109.28  0.000063   -0.01    109.26   
    60. A(C   1,C   2,C   5)          110.94  0.000031   -0.04    110.91   
    61. A(C   5,C   2,H   6)          109.55  0.000040   -0.00    109.55   
    62. A(C   1,C   2,H   7)          109.11  0.000018   -0.01    109.11   
    63. A(C   1,C   2,H   6)          111.17 -0.000054    0.02    111.19   
    64. A(H   6,C   2,H   7)          106.68 -0.000101    0.04    106.72   
    65. A(C   2,C   5,C   8)          120.23 -0.000015   -0.01    120.22   
    66. A(C   2,C   5,C  22)          120.69  0.000066    0.00    120.70   
    67. A(C   8,C   5,C  22)          119.08 -0.000052    0.01    119.08   
    68. A(C   5,C   8,N   9)          120.36 -0.000043    0.01    120.37   
    69. A(N   9,C   8,C  19)          119.76 -0.000001   -0.01    119.75   
    70. A(C   5,C   8,C  19)          119.88  0.000044    0.00    119.88   
    71. A(C   0,N   9,C   8)          121.35 -0.000015   -0.01    121.34   
    72. A(C   8,N   9,C  12)          121.19  0.000043   -0.03    121.16   
    73. A(C   0,N   9,C  12)          116.30 -0.000022    0.03    116.33   
    74. A(H  14,C  12,H  15)          107.41 -0.000044    0.04    107.44   
    75. A(C  13,C  12,H  15)          111.30 -0.000002    0.02    111.32   
    76. A(N   9,C  12,H  15)          107.45  0.000032    0.00    107.45   
    77. A(C  13,C  12,H  14)          110.10  0.000007    0.00    110.10   
    78. A(N   9,C  12,H  14)          109.14  0.000021   -0.01    109.13   
    79. A(N   9,C  12,C  13)          111.32 -0.000014   -0.05    111.26   
    80. A(C  12,C  13,H  17)          109.13 -0.000079    0.04    109.17   
    81. A(C  12,C  13,C  16)          109.87  0.000075   -0.05    109.82   
    82. A(H  17,C  13,H  18)          107.76 -0.000113    0.05    107.81   
    83. A(C  16,C  13,H  18)          110.24  0.000067   -0.02    110.21   
    84. A(C  12,C  13,H  18)          109.24  0.000048   -0.04    109.19   
    85. A(C  16,C  13,H  17)          110.57 -0.000002    0.02    110.60   
    86. A(H  20,C  16,H  21)          106.27 -0.000058    0.03    106.30   
    87. A(C  19,C  16,H  21)          109.69  0.000107   -0.01    109.68   
    88. A(C  13,C  16,H  21)          110.82 -0.000106    0.03    110.86   
    89. A(C  19,C  16,H  20)          109.03  0.000014   -0.02    109.01   
    90. A(C  13,C  16,C  19)          111.24  0.000070   -0.03    111.21   
    91. A(C  13,C  16,H  20)          109.64 -0.000031    0.01    109.64   
    92. A(C  16,C  19,C  23)          120.64  0.000243   -0.03    120.61   
    93. A(C   8,C  19,C  23)          118.12 -0.000105    0.01    118.13   
    94. A(C   8,C  19,C  16)          121.24 -0.000138    0.02    121.26   
    95. A(C   5,C  22,C  24)          122.57  0.000051   -0.01    122.56   
    96. A(C  24,C  22,H  40)          118.34 -0.000009    0.00    118.34   
    97. A(C   5,C  22,H  40)          119.09 -0.000041    0.01    119.10   
    98. A(C  24,C  23,O  25)          120.11 -0.000183    0.03    120.14   
    99. A(C  19,C  23,O  25)          116.46  0.000122   -0.02    116.44   
   100. A(C  19,C  23,C  24)          123.43  0.000061   -0.01    123.42   
   101. A(C  23,C  24,C  27)          119.01 -0.000042    0.00    119.02   
   102. A(C  22,C  24,C  27)          124.08  0.000041   -0.01    124.07   
   103. A(C  22,C  24,C  23)          116.91  0.000001    0.00    116.91   
   104. A(C  23,O  25,C  26)          122.97  0.000141   -0.03    122.94   
   105. A(C  28,C  26,O  29)          128.02 -0.000116    0.01    128.04   
   106. A(O  25,C  26,O  29)          113.90  0.000140   -0.02    113.88   
   107. A(O  25,C  26,C  28)          118.06 -0.000024    0.00    118.07   
   108. A(C  24,C  27,C  28)          121.00  0.000153   -0.03    120.97   
   109. A(C  28,C  27,H  41)          120.77 -0.000070    0.01    120.78   
   110. A(C  24,C  27,H  41)          118.16 -0.000082    0.01    118.17   
   111. A(C  27,C  28,C  30)          121.38  0.000250   -0.04    121.33   
   112. A(C  26,C  28,C  30)          119.79 -0.000205    0.03    119.82   
   113. A(C  26,C  28,C  27)          118.82 -0.000046    0.02    118.84   
   114. A(C  31,C  30,C  32)          115.31 -0.000055    0.02    115.33   
   115. A(C  28,C  30,C  32)          119.86  0.000171   -0.03    119.83   
   116. A(C  28,C  30,C  31)          124.82 -0.000116    0.02    124.83   
   117. A(C  35,C  31,H  39)          120.25 -0.000166    0.03    120.28   
   118. A(C  30,C  31,H  39)          119.84  0.000099   -0.02    119.82   
   119. A(C  30,C  31,C  35)          119.91  0.000067   -0.01    119.90   
   120. A(N  33,C  32,H  36)          115.42 -0.000085    0.02    115.44   
   121. A(C  30,C  32,H  36)          119.75  0.000074   -0.02    119.73   
   122. A(C  30,C  32,N  33)          124.80  0.000013   -0.00    124.80   
   123. A(C  32,N  33,C  34)          118.19  0.000064   -0.01    118.18   
   124. A(C  35,C  34,H  38)          120.98  0.000057   -0.01    120.97   
   125. A(N  33,C  34,H  38)          116.78  0.000019   -0.00    116.77   
   126. A(N  33,C  34,C  35)          122.25 -0.000076    0.01    122.26   
   127. A(C  34,C  35,H  37)          120.01  0.000064   -0.01    120.00   
   128. A(C  31,C  35,H  37)          120.45 -0.000051    0.01    120.46   
   129. A(C  31,C  35,C  34)          119.54 -0.000013    0.00    119.54   
   130. D(C   2,C   1,C   0,N   9)     56.10 -0.000019    0.14     56.24   
   131. D(C   2,C   1,C   0,H  10)    -65.11 -0.000034    0.17    -64.94   
   132. D(C   2,C   1,C   0,H  11)    176.12  0.000023    0.12    176.24   
   133. D(H   3,C   1,C   0,N   9)    -64.90 -0.000089    0.21    -64.68   
   134. D(H   3,C   1,C   0,H  11)     55.12 -0.000047    0.20     55.32   
   135. D(H   3,C   1,C   0,H  10)    173.89 -0.000104    0.25    174.14   
   136. D(C   5,C   2,C   1,C   0)    -52.00  0.000007   -0.14    -52.14   
   137. D(H   6,C   2,C   1,C   0)   -174.18 -0.000029   -0.12   -174.30   
   138. D(H   6,C   2,C   1,H   4)     65.64  0.000005   -0.15     65.49   
   139. D(H   6,C   2,C   1,H   3)    -53.75  0.000076   -0.21    -53.96   
   140. D(C   5,C   2,C   1,H   3)     68.42  0.000111   -0.22     68.20   
   141. D(C   5,C   2,C   1,H   4)   -172.19  0.000041   -0.16   -172.36   
   142. D(C   8,C   5,C   2,C   1)     26.00  0.000005    0.05     26.05   
   143. D(C   8,C   5,C   2,H   6)    149.11 -0.000014    0.05    149.16   
   144. D(C  22,C   5,C   2,C   1)   -154.41 -0.000001    0.03   -154.38   
   145. D(C   8,C   5,C   2,H   7)    -94.35 -0.000078    0.09    -94.26   
   146. D(C  22,C   5,C   2,H   6)    -31.30 -0.000021    0.03    -31.26   
   147. D(C  19,C   8,C   5,C  22)     -0.80 -0.000012    0.05     -0.75   
   148. D(C  19,C   8,C   5,C   2)    178.79 -0.000018    0.04    178.83   
   149. D(N   9,C   8,C   5,C  22)    178.93 -0.000024    0.06    179.00   
   150. D(N   9,C   8,C   5,C   2)     -1.47 -0.000029    0.05     -1.42   
   151. D(C  12,N   9,C   8,C  19)     -7.98  0.000026   -0.08     -8.06   
   152. D(C  12,N   9,C   8,C   5)    172.28  0.000037   -0.09    172.19   
   153. D(C   0,N   9,C   8,C  19)   -175.20  0.000001   -0.03   -175.24   
   154. D(C   0,N   9,C   8,C   5)      5.06  0.000012   -0.04      5.01   
   155. D(C  12,N   9,C   0,H  10)    -79.18  0.000015   -0.03    -79.21   
   156. D(C  12,N   9,C   0,C   1)    159.05 -0.000010    0.01    159.05   
   157. D(C   8,N   9,C   0,H  11)   -155.48  0.000007   -0.04   -155.52   
   158. D(C   8,N   9,C   0,H  10)     88.63  0.000047   -0.08     88.55   
   159. D(C   8,N   9,C   0,C   1)    -33.14  0.000022   -0.05    -33.18   
   160. D(C  13,C  12,N   9,C   0)   -155.21 -0.000050    0.15   -155.06   
   161. D(H  15,C  12,N   9,C   0)    -33.11 -0.000040    0.14    -32.97   
   162. D(H  14,C  12,N   9,C   8)    -84.78 -0.000088    0.24    -84.54   
   163. D(H  14,C  12,N   9,C   0)     83.06 -0.000064    0.19     83.25   
   164. D(C  13,C  12,N   9,C   8)     36.95 -0.000074    0.20     37.15   
   165. D(H  17,C  13,C  12,H  15)     61.93  0.000017   -0.19     61.74   
   166. D(H  17,C  13,C  12,H  14)    -57.06  0.000069   -0.25    -57.31   
   167. D(H  17,C  13,C  12,N   9)   -178.23  0.000047   -0.21   -178.43   
   168. D(C  16,C  13,C  12,H  15)   -176.69  0.000011   -0.17   -176.85   
   169. D(C  16,C  13,C  12,H  14)     64.32  0.000063   -0.22     64.10   
   170. D(C  16,C  13,C  12,N   9)    -56.84  0.000041   -0.18    -57.02   
   171. D(H  20,C  16,C  13,H  17)     48.73 -0.000041    0.12     48.85   
   172. D(H  20,C  16,C  13,C  12)    -71.78  0.000010    0.09    -71.69   
   173. D(C  19,C  16,C  13,H  18)    -71.54 -0.000098    0.14    -71.40   
   174. D(C  19,C  16,C  13,H  17)    169.41  0.000000    0.08    169.49   
   175. D(H  20,C  16,C  13,H  18)    167.78 -0.000140    0.18    167.97   
   176. D(C  19,C  16,C  13,C  12)     48.89  0.000051    0.05     48.94   
   177. D(C  23,C  19,C  16,H  20)    -80.37 -0.000013    0.05    -80.32   
   178. D(C   8,C  19,C  16,H  21)   -144.72 -0.000013    0.05   -144.67   
   179. D(C   8,C  19,C  16,H  20)     99.29 -0.000011    0.04     99.32   
   180. D(C   8,C  19,C  16,C  13)    -21.74 -0.000025    0.06    -21.68   
   181. D(C  23,C  19,C   8,N   9)    179.76  0.000027   -0.07    179.69   
   182. D(C  23,C  19,C   8,C   5)     -0.50  0.000016   -0.06     -0.56   
   183. D(C  23,C  19,C  16,C  13)    158.60 -0.000027    0.08    158.67   
   184. D(C  16,C  19,C   8,N   9)      0.09  0.000024   -0.06      0.04   
   185. D(C  16,C  19,C   8,C   5)    179.83  0.000013   -0.05    179.79   
   186. D(H  40,C  22,C   5,C   8)   -179.18  0.000005   -0.02   -179.20   
   187. D(H  40,C  22,C   5,C   2)      1.22  0.000011   -0.01      1.22   
   188. D(C  24,C  22,C   5,C   8)      1.23 -0.000001   -0.00      1.23   
   189. D(C  24,C  22,C   5,C   2)   -178.36  0.000005    0.01   -178.35   
   190. D(O  25,C  23,C  19,C   8)   -178.65 -0.000021    0.06   -178.59   
   191. D(C  24,C  23,C  19,C  16)   -178.86 -0.000002    0.01   -178.85   
   192. D(C  24,C  23,C  19,C   8)      1.47 -0.000004    0.02      1.49   
   193. D(O  25,C  23,C  19,C  16)      1.02 -0.000020    0.04      1.06   
   194. D(C  27,C  24,C  23,O  25)     -0.80  0.000002    0.00     -0.79   
   195. D(C  27,C  24,C  23,C  19)    179.08 -0.000016    0.04    179.12   
   196. D(C  22,C  24,C  23,O  25)    179.05  0.000006   -0.01    179.04   
   197. D(C  22,C  24,C  23,C  19)     -1.08 -0.000011    0.03     -1.05   
   198. D(C  27,C  24,C  22,H  40)     -0.08  0.000011   -0.03     -0.11   
   199. D(C  27,C  24,C  22,C   5)    179.51  0.000016   -0.05    179.46   
   200. D(C  23,C  24,C  22,H  40)   -179.92  0.000006   -0.02   -179.94   
   201. D(C  23,C  24,C  22,C   5)     -0.33  0.000012   -0.04     -0.37   
   202. D(C  26,O  25,C  23,C  24)      1.88 -0.000006    0.01      1.89   
   203. D(C  26,O  25,C  23,C  19)   -178.00  0.000010   -0.03   -178.03   
   204. D(O  29,C  26,O  25,C  23)    177.35  0.000044   -0.16    177.19   
   205. D(C  28,C  26,O  25,C  23)     -1.63  0.000010   -0.03     -1.67   
   206. D(H  41,C  27,C  24,C  23)    176.49  0.000033   -0.10    176.38   
   207. D(H  41,C  27,C  24,C  22)     -3.35  0.000029   -0.09     -3.44   
   208. D(C  28,C  27,C  24,C  23)     -0.44 -0.000003    0.01     -0.44   
   209. D(C  28,C  27,C  24,C  22)    179.72 -0.000007    0.02    179.74   
   210. D(C  30,C  28,C  27,H  41)      5.04 -0.000019    0.06      5.09   
   211. D(C  30,C  28,C  27,C  24)   -178.11  0.000018   -0.06   -178.17   
   212. D(C  26,C  28,C  27,H  41)   -176.20 -0.000028    0.08   -176.11   
   213. D(C  26,C  28,C  27,C  24)      0.65  0.000009   -0.03      0.62   
   214. D(C  30,C  28,C  26,O  29)      0.31 -0.000060    0.22      0.53   
   215. D(C  30,C  28,C  26,O  25)    179.13 -0.000017    0.07    179.20   
   216. D(C  27,C  28,C  26,O  29)   -178.47 -0.000057    0.19   -178.28   
   217. D(C  27,C  28,C  26,O  25)      0.34 -0.000014    0.04      0.39   
   218. D(C  32,C  30,C  28,C  27)     17.56 -0.000064    0.23     17.79   
   219. D(C  32,C  30,C  28,C  26)   -161.20 -0.000057    0.21   -160.99   
   220. D(C  31,C  30,C  28,C  27)   -161.08 -0.000072    0.26   -160.81   
   221. D(C  31,C  30,C  28,C  26)     20.17 -0.000066    0.24     20.41   
   222. D(H  39,C  31,C  30,C  32)   -179.16 -0.000022    0.06   -179.10   
   223. D(H  39,C  31,C  30,C  28)     -0.47 -0.000010    0.03     -0.44   
   224. D(C  35,C  31,C  30,C  32)     -0.08 -0.000008    0.02     -0.06   
   225. D(C  35,C  31,C  30,C  28)    178.61  0.000003   -0.01    178.60   
   226. D(H  36,C  32,C  30,C  31)   -178.15 -0.000027    0.06   -178.08   
   227. D(H  36,C  32,C  30,C  28)      3.09 -0.000033    0.09      3.19   
   228. D(N  33,C  32,C  30,C  31)     -0.31  0.000019   -0.05     -0.36   
   229. D(N  33,C  32,C  30,C  28)   -179.07  0.000012   -0.02   -179.09   
   230. D(C  34,N  33,C  32,H  36)    178.50  0.000031   -0.07    178.43   
   231. D(C  34,N  33,C  32,C  30)      0.58 -0.000016    0.04      0.62   
   232. D(H  38,C  34,N  33,C  32)    179.42  0.000002   -0.00    179.41   
   233. D(C  35,C  34,N  33,C  32)     -0.46  0.000003   -0.00     -0.46   
   234. D(H  37,C  35,C  34,H  38)     -0.37  0.000009   -0.02     -0.40   
   235. D(H  37,C  35,C  34,N  33)    179.50  0.000008   -0.02    179.48   
   236. D(C  31,C  35,C  34,H  38)   -179.79  0.000007   -0.02   -179.81   
   237. D(C  31,C  35,C  34,N  33)      0.09  0.000007   -0.02      0.07   
   238. D(H  37,C  35,C  31,H  39)     -0.15  0.000010   -0.02     -0.18   
   239. D(H  37,C  35,C  31,C  30)   -179.22 -0.000006    0.01   -179.21   
   240. D(C  34,C  35,C  31,H  39)    179.26  0.000013   -0.03    179.23   
   241. D(C  34,C  35,C  31,C  30)      0.19 -0.000003    0.01      0.20   
    ----------------------------------------------------------------------------

Geometry step timings:
Preparation and reading OPT file:      0.001 s ( 2.974 %)
Internal coordinates            :      0.000 s ( 0.116 %)
B/P matrices and projection     :      0.004 s (19.247 %)
Hessian update/contruction      :      0.009 s (46.831 %)
Making the step                 :      0.002 s (11.978 %)
Converting the step to Cartesian:      0.000 s ( 1.416 %)
Storing new data                :      0.001 s ( 5.382 %)
Checking convergence            :      0.000 s ( 0.071 %)
Final printing                  :      0.002 s (11.978 %)
Total time                      :      0.020 s

Time for energy+gradient        :    879.937 s
Time for complete geometry iter :    880.026 s

         *************************************************************
         *                GEOMETRY OPTIMIZATION CYCLE   3            *
         *************************************************************
---------------------------------
CARTESIAN COORDINATES (ANGSTROEM)
---------------------------------
  C     -6.553797   -1.483741   -0.139262
  C     -6.528621   -2.588702   -1.178766
  C     -5.560003   -3.675429   -0.735251
  H     -6.219370   -2.173975   -2.141606
  H     -7.536559   -2.987659   -1.295902
  C     -4.216354   -3.090788   -0.395578
  H     -5.441968   -4.437449   -1.506935
  H     -5.967907   -4.181142    0.147453
  C     -4.110610   -1.731374    0.030074
  N     -5.223560   -0.942380    0.104698
  H     -6.963530   -1.867444    0.807132
  H     -7.188031   -0.656101   -0.455348
  C     -5.165696    0.387914    0.693164
  C     -3.861441    1.083260    0.353617
  H     -5.276769    0.304524    1.784793
  H     -6.021835    0.947808    0.319731
  C     -2.687697    0.235425    0.821457
  H     -3.842450    2.062297    0.832881
  H     -3.807922    1.238902   -0.726653
  C     -2.835399   -1.191483    0.374481
  H     -2.626630    0.262357    1.915572
  H     -1.745773    0.639813    0.452595
  C     -3.076614   -3.854907   -0.480974
  C     -1.732811   -2.021369    0.293156
  C     -1.799531   -3.356426   -0.139053
  O     -0.528248   -1.475193    0.660796
  C      0.675044   -2.177241    0.593266
  C     -0.605942   -4.118599   -0.204377
  C      0.636279   -3.552742    0.147876
  O      1.654082   -1.514221    0.909681
  C      1.862804   -4.310322    0.046998
  C      3.066720   -3.990962    0.716286
  C      1.903670   -5.487225   -0.750114
  N      2.969180   -6.265054   -0.898517
  C      4.090940   -5.933378   -0.244596
  C      4.171878   -4.803702    0.568968
  H      1.030561   -5.781247   -1.318579
  H      5.094225   -4.574847    1.087185
  H      4.944038   -6.589633   -0.374313
  H      3.112181   -3.122246    1.351554
  H     -3.154920   -4.882269   -0.816330
  H     -0.680298   -5.158397   -0.480796

----------------------------
CARTESIAN COORDINATES (A.U.)
----------------------------
  NO LB      ZA    FRAG     MASS         X           Y           Z
   0 C     6.0000    0    12.011  -12.384882   -2.803864   -0.263167
   1 C     6.0000    0    12.011  -12.337305   -4.891939   -2.227545
   2 C     6.0000    0    12.011  -10.506883   -6.945553   -1.389424
   3 H     1.0000    0     1.008  -11.752906   -4.108218   -4.047049
   4 H     1.0000    0     1.008  -14.242033   -5.645857   -2.448900
   5 C     6.0000    0    12.011   -7.967755   -5.840743   -0.747534
   6 H     1.0000    0     1.008  -10.283829   -8.385563   -2.847695
   7 H     1.0000    0     1.008  -11.277709   -7.901214    0.278646
   8 C     6.0000    0    12.011   -7.767926   -3.271823    0.056831
   9 N     7.0000    0    14.007   -9.871097   -1.780839    0.197850
  10 H     1.0000    0     1.008  -13.159164   -3.528958    1.525258
  11 H     1.0000    0     1.008  -13.583409   -1.239851   -0.860484
  12 C     6.0000    0    12.011   -9.761750    0.733052    1.309889
  13 C     6.0000    0    12.011   -7.297066    2.047064    0.668240
  14 H     1.0000    0     1.008   -9.971648    0.575468    3.372770
  15 H     1.0000    0     1.008  -11.379618    1.791097    0.604204
  16 C     6.0000    0    12.011   -5.079011    0.444888    1.552329
  17 H     1.0000    0     1.008   -7.261179    3.897177    1.573916
  18 H     1.0000    0     1.008   -7.195930    2.341185   -1.373175
  19 C     6.0000    0    12.011   -5.358127   -2.251577    0.707666
  20 H     1.0000    0     1.008   -4.963611    0.495783    3.619906
  21 H     1.0000    0     1.008   -3.299033    1.209071    0.855280
  22 C     6.0000    0    12.011   -5.813958   -7.284719   -0.908908
  23 C     6.0000    0    12.011   -3.274538   -3.819834    0.553984
  24 C     6.0000    0    12.011   -3.400620   -6.342726   -0.262772
  25 O     8.0000    0    15.999   -0.998245   -2.787711    1.248723
  26 C     6.0000    0    12.011    1.275648   -4.114389    1.121110
  27 C     6.0000    0    12.011   -1.145064   -7.783024   -0.386216
  28 C     6.0000    0    12.011    1.202392   -6.713709    0.279445
  29 O     8.0000    0    15.999    3.125763   -2.861464    1.719047
  30 C     6.0000    0    12.011    3.520190   -8.145329    0.088814
  31 C     6.0000    0    12.011    5.795261   -7.541825    1.353585
  32 C     6.0000    0    12.011    3.597415  -10.369352   -1.417511
  33 N     7.0000    0    14.007    5.610937  -11.839236   -1.697951
  34 C     6.0000    0    12.011    7.730756  -11.212460   -0.462219
  35 C     6.0000    0    12.011    7.883707   -9.077681    1.075193
  36 H     1.0000    0     1.008    1.947479  -10.924974   -2.491754
  37 H     1.0000    0     1.008    9.626689   -8.645208    2.054482
  38 H     1.0000    0     1.008    9.342878  -12.452602   -0.707349
  39 H     1.0000    0     1.008    5.881170   -5.900191    2.554066
  40 H     1.0000    0     1.008   -5.961935   -9.226152   -1.542641
  41 H     1.0000    0     1.008   -1.285577   -9.747957   -0.908573

--------------------------------
INTERNAL COORDINATES (ANGSTROEM)
--------------------------------
 C      0   0   0     0.000000000000     0.00000000     0.00000000
 C      1   0   0     1.517281469162     0.00000000     0.00000000
 C      2   1   0     1.521807686845   109.32577866     0.00000000
 H      2   1   3     1.093021322281   109.38321871   239.07791609
 H      2   1   3     1.090333538343   108.94934199   121.46538882
 C      3   2   1     1.504185786229   110.90498140   307.85991230
 H      3   2   1     1.090918432986   111.19362713   185.70268861
 H      3   2   1     1.096037792432   109.10641218    68.26184513
 C      6   3   2     1.428414808806   120.21991072    26.04647800
 N      9   6   3     1.366286424312   120.36794369   358.57927830
 H      1   2   3     1.100349516325   109.96721936   295.06044793
 H      1   2   3     1.089564586376   111.35159670   176.24126494
 C     10   9   6     1.455789147090   121.15756057   172.18706816
 C     13  10   9     1.516534444189   111.26385031    37.14941451
 H     13  10   9     1.100429870363   109.13125527   275.45984380
 H     13  10   9     1.088993279116   107.45486383   159.24774392
 C     14  13  10     1.521635015572   109.82096124   302.97619898
 H     14  13  10     1.090214705728   109.16606483   181.56733214
 H     14  13  10     1.092736370732   109.19415536    63.93278121
 C      9   6   3     1.426976117076   119.87746773   178.82990557
 H     17  14  13     1.096148622625   109.64379853   288.30635855
 H     17  14  13     1.089408358306   110.85549092   171.24797058
 C      6   3   2     1.374837490886   120.69552472   205.62314250
 C     20   9   6     1.382398198468   118.12745805   359.44010492
 C     24  20   9     1.404860177850   123.41606423     1.49192885
 O     24  20   9     1.372748400372   116.44031948   181.40601115
 C     26  24  20     1.394756147383   122.94220111   181.97360541
 C     25  24  20     1.417684586378   119.01878127   179.11738010
 C     28  25  24     1.409746977441   120.96877829   359.56390963
 O     27  26  24     1.224021820428   113.88414050   177.18598525
 C     29  28  25     1.445153735941   121.33230700   181.83139906
 C     31  29  28     1.413984258107   124.83300307   199.18785792
 C     31  29  28     1.422025919616   119.82659224    17.79222368
 N     33  31  29     1.327536773605   124.79547053   180.90505351
 C     34  33  31     1.340137035874   118.18207144     0.62425907
 C     32  31  29     1.379718329436   119.89533704   178.59877738
 H     33  31  29     1.082552606617   119.73292815     3.18592935
 H     36  32  31     1.082426344028   120.45621854   180.79054245
 H     35  34  33     1.084100575306   116.77474021   179.41314182
 H     32  31  29     1.077171424789   119.81727421   359.56222775
 H     23   6   3     1.083544565098   119.09662189     1.21654434
 H     28  25  24     1.078478727708   118.17059720   176.38442389

---------------------------
INTERNAL COORDINATES (A.U.)
---------------------------
 C      0   0   0     0.000000000000     0.00000000     0.00000000
 C      1   0   0     2.867246444791     0.00000000     0.00000000
 C      2   1   0     2.875799756634   109.32577866     0.00000000
 H      2   1   3     2.065510957648   109.38321871   239.07791609
 H      2   1   3     2.060431782097   108.94934199   121.46538882
 C      3   2   1     2.842499190510   110.90498140   307.85991230
 H      3   2   1     2.061537072790   111.19362713   185.70268861
 H      3   2   1     2.071211260123   109.10641218    68.26184513
 C      6   3   2     2.699312794280   120.21991072    26.04647800
 N      9   6   3     2.581907162445   120.36794369   358.57927830
 H      1   2   3     2.079359237446   109.96721936   295.06044793
 H      1   2   3     2.058978673470   111.35159670   176.24126494
 C     10   9   6     2.751042796734   121.15756057   172.18706816
 C     13  10   9     2.865834772175   111.26385031    37.14941451
 H     13  10   9     2.079511084573   109.13125527   275.45984380
 H     13  10   9     2.057899059210   107.45486383   159.24774392
 C     14  13  10     2.875473455216   109.82096124   302.97619898
 H     14  13  10     2.060207220999   109.16606483   181.56733214
 H     14  13  10     2.064972477259   109.19415536    63.93278121
 C      9   6   3     2.696594060920   119.87746773   178.82990557
 H     17  14  13     2.071420698837   109.64379853   288.30635855
 H     17  14  13     2.058683445203   110.85549092   171.24797058
 C      6   3   2     2.598066336422   120.69552472   205.62314250
 C     20   9   6     2.612354003130   118.12745805   359.44010492
 C     24  20   9     2.654800992588   123.41606423     1.49192885
 O     24  20   9     2.594118527482   116.44031948   181.40601115
 C     26  24  20     2.635707142157   122.94220111   181.97360541
 C     25  24  20     2.679035612537   119.01878127   179.11738010
 C     28  25  24     2.664035705487   120.96877829   359.56390963
 O     27  26  24     2.313066022552   113.88414050   177.18598525
 C     29  28  25     2.730944782342   121.33230700   181.83139906
 C     31  29  28     2.672043005497   124.83300307   199.18785792
 C     31  29  28     2.687239543411   119.82659224    17.79222368
 N     33  31  29     2.508680934824   124.79547053   180.90505351
 C     34  33  31     2.532491979726   118.18207144     0.62425907
 C     32  31  29     2.607289784586   119.89533704   178.59877738
 H     33  31  29     2.045727952068   119.73292815     3.18592935
 H     36  32  31     2.045489350354   120.45621854   180.79054245
 H     35  34  33     2.048653188956   116.77474021   179.41314182
 H     32  31  29     2.035558992137   119.81727421   359.56222775
 H     23   6   3     2.047602481934   119.09662189     1.21654434
 H     28  25  24     2.038029436629   118.17059720   176.38442389

------------------------------------------------------------------------------
                   ___                                                        
                  /   \      - P O W E R E D   B Y -                         
                 /     \                                                     
                 |  |  |   _    _      __       _____    __    __             
                 |  |  |  | |  | |    /  \     |  _  \  |  |  /  |          
                  \  \/   | |  | |   /    \    | | | |  |  | /  /          
                 / \  \   | |__| |  /  /\  \   | |_| |  |  |/  /          
                |  |  |   |  __  | /  /__\  \  |    /   |      \           
                |  |  |   | |  | | |   __   |  |    \   |  |\   \          
                \     /   | |  | | |  |  |  |  | |\  \  |  | \   \       
                 \___/    |_|  |_| |__|  |__|  |_| \__\ |__|  \__/        
                                                                              
                      - O R C A' S   B I G   F R I E N D -                    
                                      &                                       
                       - I N T E G R A L  F E E D E R -                       
                                                                              
 v1 FN, 2020, v2 2021, v3 2022-2024                                           
------------------------------------------------------------------------------


----------------------
SHARK INTEGRAL PACKAGE
----------------------

Number of atoms                             ...     42
Number of basis functions                   ...    684
Number of shells                            ...    312
Maximum angular momentum                    ...      2
Integral batch strategy                     ... SHARK/LIBINT Hybrid
RI-J (if used) integral strategy            ... SPLIT-RIJ (Revised 2003 algorithm where possible)
Printlevel                                  ...      1
Contraction scheme used                     ... SEGMENTED contraction
Prescreening option                         ... SCHWARTZ
   Thresh                                   ... 2.500e-11
   Tcut                                     ... 2.500e-12
   Tpresel                                  ... 2.500e-12 
Coulomb Range Separation                    ... NOT USED
Exchange Range Separation                   ... NOT USED
Multipole approximations                    ... NOT USED
Finite Nucleus Model                        ... NOT USED
CABS basis                                  ... NOT available
Auxiliary Coulomb fitting basis             ... AVAILABLE
   # of basis functions in Aux-J            ...   1374
   # of shells in Aux-J                     ...    450
   Maximum angular momentum in Aux-J        ...      4
Auxiliary J/K fitting basis                 ... NOT available
Auxiliary Correlation fitting basis         ... AVAILABLE
   # of basis functions in Aux-C            ...   2094
   # of shells in Aux-C                     ...    654
   Maximum angular momentum in Aux-C        ...      4
Auxiliary 'external' fitting basis          ... NOT available

Checking pre-screening integrals            ... done (  0.0 sec) Dimension = 312
Check shell pair data                       ... done (  0.0 sec)
Shell pair information
Shell pair cut-off parameter TPreSel        ...   2.5e-12
Total number of shell pairs                 ...     48828
Shell pairs after pre-screening             ...     32412
Total number of primitive shell pairs       ...    159912
Primitive shell pairs kept                  ...     69769
          la=0 lb=0:   9551 shell pairs
          la=1 lb=0:  10757 shell pairs
          la=1 lb=1:   3024 shell pairs
          la=2 lb=0:   5320 shell pairs
          la=2 lb=1:   3004 shell pairs
          la=2 lb=2:    756 shell pairs

Calculating one electron integrals          ... done (  0.1 sec)
Calculating RI/J V-Matrix + Cholesky decomp.... done (  0.3 sec)
Calculating RI/C V-Matrix + Cholesky decomp.... done (  1.3 sec)
Calculating Nuclear repulsion               ... done (  0.0 sec) ENN=   1942.592060991396 Eh

Diagonalization of the overlap matrix:
Smallest eigenvalue                        ... 3.462e-06
Time for diagonalization                   ...    0.035 sec
Threshold for overlap eigenvalues          ... 1.000e-07
Number of eigenvalues below threshold      ... 0
Time for construction of square roots      ...    0.097 sec
Total time needed                          ...    0.152 sec

-------------------
DFT GRID GENERATION
-------------------

General Integration Accuracy     IntAcc      ... 4.388
Radial Grid Type                 RadialGrid  ... OptM3 with GC (2021)
Angular Grid (max. ang.)         AngularGrid ... 4 (Lebedev-302)
Angular grid pruning method      GridPruning ... 4 (adaptive)
Weight generation scheme         WeightScheme... mBecke (2022)
Basis function cutoff            BFCut       ... 1.0000e-11
Integration weight cutoff        WCut        ... 1.0000e-14
Partially contracted basis set               ... off
Rotationally invariant grid construction     ... off
Angular grids for H and He will be reduced by one unit

Total number of grid points                  ...   200230
Total number of batches                      ...     3149
Average number of points per batch           ...       63
Average number of grid points per atom       ...     4767

--------------------
COSX GRID GENERATION
--------------------

GRIDX 1
-------
General Integration Accuracy     IntAcc      ... 3.816
Radial Grid Type                 RadialGrid  ... OptM3 with GC (2021)
Angular Grid (max. ang.)         AngularGrid ... 1 (Lebedev-50)
Angular grid pruning method      GridPruning ... 4 (adaptive)
Weight generation scheme         WeightScheme... mBecke (2022)
Basis function cutoff            BFCut       ... 1.0000e-11
Integration weight cutoff        WCut        ... 1.0000e-14
Partially contracted basis set               ... on
Rotationally invariant grid construction     ... off
Angular grids for H and He will be reduced by one unit

Total number of grid points                  ...    25423
Total number of batches                      ...      226
Average number of points per batch           ...      112
Average number of grid points per atom       ...      605
UseSFitting                                  ... on

GRIDX 2
-------
General Integration Accuracy     IntAcc      ... 4.020
Radial Grid Type                 RadialGrid  ... OptM3 with GC (2021)
Angular Grid (max. ang.)         AngularGrid ... 2 (Lebedev-110)
Angular grid pruning method      GridPruning ... 4 (adaptive)
Weight generation scheme         WeightScheme... mBecke (2022)
Basis function cutoff            BFCut       ... 1.0000e-11
Integration weight cutoff        WCut        ... 1.0000e-14
Partially contracted basis set               ... on
Rotationally invariant grid construction     ... off
Angular grids for H and He will be reduced by one unit

Total number of grid points                  ...    55228
Total number of batches                      ...      454
Average number of points per batch           ...      121
Average number of grid points per atom       ...     1315
UseSFitting                                  ... on

GRIDX 3
-------
General Integration Accuracy     IntAcc      ... 4.338
Radial Grid Type                 RadialGrid  ... OptM3 with GC (2021)
Angular Grid (max. ang.)         AngularGrid ... 3 (Lebedev-194)
Angular grid pruning method      GridPruning ... 4 (adaptive)
Weight generation scheme         WeightScheme... mBecke (2022)
Basis function cutoff            BFCut       ... 1.0000e-11
Integration weight cutoff        WCut        ... 1.0000e-14
Partially contracted basis set               ... on
Rotationally invariant grid construction     ... off
Angular grids for H and He will be reduced by one unit

Total number of grid points                  ...   120916
Total number of batches                      ...      973
Average number of points per batch           ...      124
Average number of grid points per atom       ...     2879
UseSFitting                                  ... on
Initializing property integral containers    ... done (  0.0 sec)

SHARK setup successfully completed in  10.1 seconds

Maximum memory used throughout the entire STARTUP-calculation: 139.8 MB
Occupation numbers will be reassigned to an Aufbau configuration
             **** ENERGY FILE WAS UPDATED (NMU-1.en.tmp) ****
Finished Guess after   1.9 sec
Maximum memory used throughout the entire GUESS-calculation: 88.9 MB
--------------------
CPCM SOLVATION MODEL
--------------------
CPCM parameters:
  Epsilon                                         ...      80.1510
  Refrac                                          ...       1.3328
  Rsolv                                           ...       1.3000
  Surface type                                    ... GAUSSIAN VDW
  Discretization scheme                           ... Constant charge density
    Threshold for H atoms                         ...       5.0000 (charges/Ang^2)
    Threshold for non-H atoms                     ...       5.0000 (charges/Ang^2)
  Epsilon function type                           ...         CPCM
Solvent:                                          ... WATER
Radii:
  Scheme                                          ... Element-dependent radii
  Radius for C  used is    3.8550 Bohr (=   2.0400 Ang.)
  Radius for H  used is    2.4944 Bohr (=   1.3200 Ang.)
  Radius for N  used is    3.5149 Bohr (=   1.8600 Ang.)
  Radius for O  used is    3.4469 Bohr (=   1.8240 Ang.)
Calculating surface                               ...        done! (  0.0s)
Cavity surface points                             ...         3529
Cavity Volume                                     ...    2459.8840
Cavity Surface-area                               ...    1212.1222
Calculating surface distance matrix               ...        done! (  0.0s)
Performing Cholesky decomposition & store         ...        done! (  2.0s)
Overall time for CPCM initialization              ...                 2.1s

----------------------------------------D-I-I-S--------------------------------------------
Iteration    Energy (Eh)           Delta-E    RMSDP     MaxDP     DIISErr   Damp  Time(sec)
-------------------------------------------------------------------------------------------
               ***  Starting incremental Fock matrix formation  ***
                              *** Initializing SOSCF ***
---------------------------------------S-O-S-C-F--------------------------------------
Iteration    Energy (Eh)           Delta-E    RMSDP     MaxDP     MaxGrad    Time(sec)
--------------------------------------------------------------------------------------
    1    -1032.6974962483770923     0.00e+00  2.16e-04  2.05e-02  1.04e-04    38.8
               *** Restarting incremental Fock matrix formation ***
    2    -1032.6975426146984773    -4.64e-05  4.45e-05  3.37e-03  1.36e-04    39.8
    3    -1032.6975480532476013    -5.44e-06  1.44e-05  7.17e-04  5.95e-05    29.8
    4    -1032.6975473365143898     7.17e-07  1.01e-05  6.57e-04  1.10e-04    24.3
    5    -1032.6975484665711065    -1.13e-06  3.85e-06  3.73e-04  6.27e-06    23.9
    6    -1032.6975484616029917     4.97e-09  3.33e-06  3.16e-04  1.09e-05    18.0
                 **** Energy Check signals convergence ****

               *****************************************************
               *                     SUCCESS                       *
               *           SCF CONVERGED AFTER   6 CYCLES          *
               *****************************************************

Recomputing exchange energy using gridx3       ... done (   65.362 sec)
Old exchange energy                            :    -27.996232758 Eh
New exchange energy                            :    -27.996219530 Eh
Exchange energy change after final integration :      0.000013229 Eh
Total energy after final integration           :  -1032.697535233 Eh
             **** ENERGY FILE WAS UPDATED (NMU-1.en.tmp) ****

----------------
TOTAL SCF ENERGY
----------------

Total Energy       :      -1032.69753523306167 Eh          -28101.12857 eV

Components:
Nuclear Repulsion  :       1942.59206099139624 Eh           52860.61736 eV
Electronic Energy  :      -2975.26146324234105 Eh          -80960.98039 eV
One Electron Energy:      -5261.24431857784475 Eh         -143165.73631 eV
Two Electron Energy:       2285.98285533550370 Eh           62204.75592 eV
CPCM Dielectric    :         -0.02814621065827 Eh              -0.76590 eV

Virial components:
Potential Energy   :      -2060.87748484752410 Eh          -56079.32738 eV
Kinetic Energy     :       1028.17994961446243 Eh           27978.19881 eV
Virial Ratio       :          2.00439376941779

DFT components:
N(Alpha)           :       83.999949398722 electrons
N(Beta)            :       83.999949398722 electrons
N(Total)           :      167.999898797443 electrons
E(X)               :     -111.267921609440 Eh       
E(C)               :       -6.755439148343 Eh       
E(XC)              :     -118.023360757783 Eh       

CPCM Solvation Model Properties:
Surface-charge          :         -0.03915844947237
Corrected charge        :         -0.00000000000000
Outlying charge corr.   :          0.00007903372805 Eh               0.00215 eV
Free-energy (cav+disp)  :  This term is not implemented in the current solvation scheme

---------------
SCF CONVERGENCE
---------------

  Last Energy change         ...   -4.9681e-09  Tolerance :   1.0000e-08
  Last MAX-Density change    ...    3.1561e-04  Tolerance :   1.0000e-07
  Last RMS-Density change    ...    3.3296e-06  Tolerance :   5.0000e-09
  Last DIIS Error            ...    1.6312e-03  Tolerance :   5.0000e-07
  Last Orbital Gradient      ...    1.0890e-05  Tolerance :   1.0000e-05
  Last Orbital Rotation      ...    2.0288e-05  Tolerance :   1.0000e-05


Total SCF time: 0 days 0 hours 4 min 3 sec 
Finished LeanSCF after 244.0 sec

Maximum memory used throughout the entire LEANSCF-calculation: 170.0 MB

------------------------------------------------------------------------------
                         ORCA PROPERTY INTEGRAL CALCULATIONS
------------------------------------------------------------------------------

GBWName                                   ... NMU-1.gbw
Number of atoms                           ...     42
Number of basis functions                 ...    684
Max core memory                           ...   1024 MB

Dipole integrals                          ... YES
Quadrupole integrals                      ...  NO
Linear momentum integrals                 ... YES
Angular momentum integrals                ... YES
Higher moments length integrals           ...  NO
Higher moments velocity integrals         ...  NO
Kinetic energy integrals                  ...  NO
GIAO right hand sides                     ...  NO
GIAO dipole derivative integrals          ...  NO
SOC integrals                             ...  NO
EPR diamagnetic integrals (GIAO)          ...  NO
EPR gauge integrals                       ...  NO
Field gradient integrals                  ...  NO (   0 nuclei)
Spin-dipole/Fermi contact integrals       ...  NO (   0 nuclei)
Contact density integrals                 ...  NO (   0 nuclei)
Nucleus-orbit integrals                   ...  NO (   0 nuclei)
Geometric perturbations                   ...  NO (  42 nuclei)

Choice of electric origin   ... Center of mass
Position of electric origin ... ( -2.6980, -5.0964,  0.1071) 
Choice of magnetic origin   ... GIAO
Position of magnetic origin ... (  0.0000,  0.0000,  0.0000) 

Calculating integrals                     ... Electric Dipole (Length)     done (  0.6 sec)
Calculating integrals                     ... Linear Momentum              done (  0.3 sec)
Calculating integrals                     ... Angular Momentum  (ElOri)    done (  0.4 sec)

Property integrals calculated in   1.3 sec

Maximum memory used throughout the entire PROPINT-calculation: 91.8 MB
------------------------------------------------------------------------------
                        ORCA TD-DFT/TDA CALCULATION
------------------------------------------------------------------------------

Input orbitals are from        ... NMU-1.gbw
CI-vector output               ... NMU-1.cis
Solver                         ... FN-2001
Tamm-Dancoff approximation     ... operative
CIS-Integral strategy          ... AO-integrals
Integral handling              ... AO integral Direct
Max. core memory used          ... 512 MB
Reference state                ... RHF
Generation of triplets         ... off
Follow IRoot                   ... off
Number of operators            ... 1
Orbital ranges used for CIS calculation:
 Operator 0:  Orbitals  24... 83  to  84...683
XAS localization array:
 Operator 0:  Orbitals  -1... -1

-------------------
XC-INTEGRATION GRID
-------------------

General Integration Accuracy     IntAcc      ... 3.467
Radial Grid Type                 RadialGrid  ... OptM3 with GC (2021)
Angular Grid (max. ang.)         AngularGrid ... 1 (Lebedev-50)
Angular grid pruning method      GridPruning ... 4 (adaptive)
Weight generation scheme         WeightScheme... mBecke (2022)
Basis function cutoff            BFCut       ... 1.0000e-11
Integration weight cutoff        WCut        ... 1.0000e-14
Partially contracted basis set               ... off
Rotationally invariant grid construction     ... off
Angular grids for H and He will be reduced by one unit

Total number of grid points                  ...    29192
Total number of batches                      ...      474
Average number of points per batch           ...       61
Average number of grid points per atom       ...      695

---------------------
COSX-INTEGRATION GRID
---------------------

General Integration Accuracy     IntAcc      ... 3.067
Radial Grid Type                 RadialGrid  ... OptM3 with GC (2021)
Angular Grid (max. ang.)         AngularGrid ... 1 (Lebedev-50)
Angular grid pruning method      GridPruning ... 4 (adaptive)
Weight generation scheme         WeightScheme... mBecke (2022)
Basis function cutoff            BFCut       ... 1.0000e-11
Integration weight cutoff        WCut        ... 1.0000e-14
Partially contracted basis set               ... on
Rotationally invariant grid construction     ... off
Angular grids for H and He will be reduced by one unit

Total number of grid points                  ...    13515
Total number of batches                      ...      134
Average number of points per batch           ...      100
Average number of grid points per atom       ...      322

---------------
TD-DFT XC SETUP
---------------

DFT calculation                         ... on
Name of the grid file                   ... NMU-1.grid_cis.tmp
RI-approximation                        ... on
Aux-basis dimension                     ... 2094
Exchange functional (TD-DFT)            ... B88
   X-Alpha parameter    XAlpha (TD-DFT) ...  0.666667
   Becke's b parameter  XBeta (TD-DFT)  ...  0.004200
Correlation functional (TD-DFT)         ... LYP
 LDA part of GGA corr.  LDAOpt (TD-DFT) ... VWN-5
Hybrid DFT                              ... on
   Exchange mixing (TD-DFT)             ...  0.200
   GGA exch. scaling (TD-DFT)           ...  0.720
   GGA corr. scaling (TD-DFT)           ...  0.810

Building densities             ... done
Calculating rho(r) on the grid ... done
Building xc-kernel on the grid ... done
                    *** TD-DFT CALCULATION INITIALIZED ***

-----------------------------
    LR-CPCM (equilibrium)
-----------------------------

Setting up LR-CPCM             ... done

------------------------
DAVIDSON-DIAGONALIZATION
------------------------

Dimension of the eigenvalue problem            ...  36000
Number of roots to be determined               ...      1
Maximum size of the expansion space            ...     10
Maximum number of iterations                   ...    100
Convergence tolerance for the residual         ...    2.500e-07
Convergence tolerance for the energies         ...    2.500e-07
Orthogonality tolerance                        ...    1.000e-14
Level Shift                                    ...    0.000e+00
Constructing the preconditioner                ... o.k.
Building the initial guess                     ... o.k.
Number of trial vectors determined             ...     10


                       ****Iteration    0****
   Time for iteration     :  TOTAL=22.9 TRAFO=0.0 RIJ=4.0 COSX=9.0 XC=1.3
   Size of expansion space: 3
   Lowest Energy          :     0.117495047087
   Maximum Energy change  :     0.117495047087 (vector 0)
   Maximum residual norm  :     0.017927198056

                       ****Iteration    1****
   Time for iteration     :  TOTAL=18.0 TRAFO=0.0 RIJ=2.5 COSX=7.2 XC=0.5
   Size of expansion space: 4
   Lowest Energy          :     0.101148820956
   Maximum Energy change  :     0.016346226131 (vector 0)
   Maximum residual norm  :     0.000595800480

                       ****Iteration    2****
   Time for iteration     :  TOTAL=18.0 TRAFO=0.0 RIJ=2.5 COSX=7.3 XC=0.5
   Size of expansion space: 5
   Lowest Energy          :     0.100526532526
   Maximum Energy change  :     0.000622288430 (vector 0)
   Maximum residual norm  :     0.000058512497

                       ****Iteration    3****
   Time for iteration     :  TOTAL=18.3 TRAFO=0.5 RIJ=2.5 COSX=7.2 XC=0.5
   Size of expansion space: 6
   Lowest Energy          :     0.100432521443
   Maximum Energy change  :     0.000094011083 (vector 0)
   Maximum residual norm  :     0.000007079973

                       ****Iteration    4****
   Time for iteration     :  TOTAL=18.3 TRAFO=0.0 RIJ=2.7 COSX=7.4 XC=0.5
   Size of expansion space: 7
   Lowest Energy          :     0.100424905805
   Maximum Energy change  :     0.000007615638 (vector 0)
   Maximum residual norm  :     0.000000620472

                       ****Iteration    5****
   Time for iteration     :  TOTAL=20.7 TRAFO=2.4 RIJ=2.6 COSX=7.4 XC=0.5
   Size of expansion space: 8
   Lowest Energy          :     0.100424280004
   Maximum Energy change  :     0.000000625801 (vector 0)
   Maximum residual norm  :     0.000000073385

      *** CONVERGENCE OF RESIDUAL NORM REACHED ***

Storing the converged CI vectors               ... NMU-1.cis1

                 *** DAVIDSON DONE ***

Total time for solving the CIS problem:   117.401sec

------------------------------------
TD-DFT/TDA EXCITED STATES (SINGLETS)
------------------------------------

the weight of the individual excitations are printed if larger than 1.0e-02

STATE  1:  E=   0.100424 au      2.733 eV    22040.6 cm**-1 <S**2> =   0.000000 Mult 1
    83a ->  84a  :     0.970360 (c=  0.98506877)


-----------------------------
TD-DFT/TDA-EXCITATION SPECTRA
-----------------------------

Center of mass = ( -2.6980, -5.0964,  0.1071)
Generating CIS transition densities           ... done

----------------------------------------------------------------------------------------------------
                     ABSORPTION SPECTRUM VIA TRANSITION ELECTRIC DIPOLE MOMENTS    
----------------------------------------------------------------------------------------------------
     Transition      Energy     Energy  Wavelength fosc(D2)      D2        DX        DY        DZ   
                      (eV)      (cm-1)    (nm)                 (au**2)    (au)      (au)      (au)  
----------------------------------------------------------------------------------------------------
  0-1A  ->  1-1A    2.732684   22040.6   453.7   1.399297803  20.90079  -4.31718   1.50304  -0.06000

----------------------------------------------------------------------------------------------------
                     ABSORPTION SPECTRUM VIA TRANSITION VELOCITY DIPOLE MOMENTS    
----------------------------------------------------------------------------------------------------
     Transition      Energy     Energy  Wavelength fosc(P2)      P2        PX        PY        PZ   
                      (eV)      (cm-1)    (nm)                 (au**2)    (au)      (au)      (au)  
----------------------------------------------------------------------------------------------------
  0-1A  ->  1-1A    2.732684   22040.6   453.7   0.739497833   0.11140   0.30496  -0.13547  -0.00645

------------------------------------------------------------------------------------------
                     CD SPECTRUM VIA TRANSITION ELECTRIC DIPOLE MOMENTS    
------------------------------------------------------------------------------------------
     Transition      Energy     Energy  Wavelength    R        MX        MY        MZ   
                      (eV)      (cm-1)    (nm)   (1e40*cgs)   (au)      (au)      (au)  
------------------------------------------------------------------------------------------
  0-1A  ->  1-1A    2.732684   22040.6   453.7  -35.11378  -0.04522  -0.06981   0.26390

------------------------------------------------------------------------------------------
                     CD SPECTRUM VIA TRANSITION VELOCITY DIPOLE MOMENTS    
------------------------------------------------------------------------------------------
     Transition      Energy     Energy  Wavelength    R        MX        MY        MZ   
                      (eV)      (cm-1)    (nm)   (1e40*cgs)   (au)      (au)      (au)  
------------------------------------------------------------------------------------------
  0-1A  ->  1-1A    2.732684   22040.6   453.7  -28.33746  -0.04522  -0.06981   0.26390

Total run time:      119.327 sec

           *** ORCA-CIS/TD-DFT FINISHED WITHOUT ERROR ***
-----------------------
CIS/TD-DFT TOTAL ENERGY
-----------------------

    E(SCF)  =  -1032.697535233 Eh
    DE(CIS) =      0.100424280 Eh (Root  1)
    ----------------------------- ---------
    E(tot)  =  -1032.597110953 Eh


------------------------
TD-DFT GRADIENT XC SETUP
------------------------

Building densities                     ... done
Calculating rho(r) on the grid         ... done
Building xc-kernel on the grid         ... done
Building xc 3rd derivative on the grid ... done
                *** TD-DFT GRADIENT CALCULATION INITIALIZED ***

--------------------------
TD-DFT/TDA RELAXED DENSITY
--------------------------

Reference wavefunction             ... RHF
State of interest                  ... 1
Basis dimension                    ... 684
DFT-XC contribution needed         ... YES
RI-approximation                   ... YES
Do Coulomb                         ... YES
Do Exchange                        ... YES
Need Hartree-Fock Exchange         ... YES
facj, facx                         ...  2.000, -0.200
Conventional                       ... NO
Range separation                   ... NO
Triplet state                      ... NO
Spin Flip                          ... NO
CIS-vectors being read from        ... NMU-1.cis
 => Number of Vectors found: 1
 => Orbital Window: 24...83 -> 84...683

Reading the CIS file                     ... done
Norm of the CI vector                    ... 1.000000000
Reading the CPCM file                    ... done
Making the CIS (pseudo)densities         ... done
Making operators G(D) and Q(T)           ... (SHARK-ok)done
Transforming the Fock operators          ... done
Making the frozen-core relaxed density   ... done
Constructing the G(H) operator           ... (SHARK-ok)done
Transforming the G(H) operator           ... done
Calculating the CIS Lagrangian           ... done
Solving the Z-vector equations           ... 

Using XC Grid                  ... (NMU-1.grid_cpscf.tmp) 
Recalculating density on grid  ... (NMU-1.grho_cpscf0.tmp) done
Calculating the xc-kernel      ... (NMU-1.fxc_cpscf0.tmp) done

-------------------
SHARK CP-SCF DRIVER
-------------------

Dimension of the orbital basis          ...    684
Dimension of the CPSCF-problem          ...  50400
Number of operators                     ...      1
Max. number of iterations               ...    128
Convergence Tolerance                   ... 1.0e-04
Number of perturbations                 ...      1
Perturbation type                       ... REAL

----------------------------
POPLE LINEAR EQUATION SOLVER
----------------------------

  ITERATION   0:   ||err||_max =   1.8966e+00 (  18.5 sec)
  ITERATION   1:   ||err||_max =   1.0855e-01 (  18.2 sec)
  ITERATION   2:   ||err||_max =   2.2176e-02 (  17.7 sec)
  ITERATION   3:   ||err||_max =   8.1742e-03 (  18.1 sec)
  ITERATION   4:   ||err||_max =   3.6272e-03 (  18.5 sec)
  ITERATION   5:   ||err||_max =   1.3486e-03 (  17.9 sec)
  ITERATION   6:   ||err||_max =   3.6647e-04 (  18.1 sec)
  ITERATION   7:   ||err||_max =   1.2463e-04 (  19.1 sec)
  ITERATION   8:   ||err||_max =   4.9772e-05 (  19.3 sec)

Finalizing the relaxed density           ... done
Storing the relaxed density              ... done
Constructing the G(Z) operator           ... (SHARK-ok)done
Adding the CPCM contribution             ... done
Adding the XC terms                      ... done
Transforming the G(Z) operator           ... done
Making the W-matrix                      ... done
Finalizing the W-matrix                  ... done
Transforming the W-matrix                ... done
Nuc. rep. gradient        (SHARK) ... done (  0.0 sec)
HCore & Overlap gradient  (SHARK) ... done (  1.6 sec)
Split-RIJ-J gradient      (SHARK) ... done ( 11.0 sec)
COSX-gradient                     ... done ( 95.1 sec)
CPCM gradient                     ... done ( 10.4 sec)
Dispersion correction             ... done (  0.0 sec)

-------------------
DISPERSION GRADIENT
-------------------

   1   C   :   -0.000804703    0.000046255   -0.000048822
   2   C   :   -0.000634482   -0.000223308   -0.000354440
   3   C   :   -0.000457337   -0.000594106   -0.000232770
   4   H   :   -0.000259296   -0.000009977   -0.000421634
   5   H   :   -0.000324364   -0.000100330   -0.000155768
   6   C   :   -0.000136437   -0.000711505   -0.000193793
   7   H   :   -0.000138417   -0.000334615   -0.000193345
   8   H   :   -0.000247614   -0.000397094    0.000110062
   9   C   :   -0.000011791   -0.000088197    0.000033893
  10   N   :   -0.000559933    0.000361077    0.000104570
  11   H   :   -0.000439247   -0.000020508    0.000227805
  12   H   :   -0.000397975    0.000159789   -0.000059767
  13   C   :   -0.000337195    0.000694768    0.000247407
  14   C   :    0.000046463    0.000772332    0.000053325
  15   H   :   -0.000224971    0.000257493    0.000367474
  16   H   :   -0.000266706    0.000333653    0.000036465
  17   C   :    0.000275106    0.000706256    0.000243230
  18   H   :    0.000013658    0.000374000    0.000045884
  19   H   :    0.000046274    0.000435367   -0.000237134
  20   C   :    0.000314049    0.000364128    0.000190105
  21   H   :    0.000171952    0.000266412    0.000368208
  22   H   :    0.000221555    0.000358270    0.000022779
  23   C   :    0.000001033   -0.000736714   -0.000207077
  24   C   :    0.000300798    0.000033617    0.000083059
  25   C   :    0.000002738   -0.000431597   -0.000107037
  26   O   :    0.000391370    0.000326307    0.000167690
  27   C   :    0.000381616    0.000546499    0.000223878
  28   C   :   -0.000098660   -0.000455834   -0.000118393
  29   C   :    0.000050404    0.000101469    0.000054693
  30   O   :    0.000353471    0.000629219    0.000221957
  31   C   :    0.000256558   -0.000187021   -0.000036336
  32   C   :    0.000603243    0.000073722    0.000316730
  33   C   :    0.000103959   -0.000564585   -0.000389791
  34   N   :    0.000208528   -0.000532787   -0.000314207
  35   C   :    0.000468909   -0.000363675   -0.000077969
  36   C   :    0.000605773   -0.000107869    0.000171215
  37   H   :   -0.000096667   -0.000286341   -0.000269428
  38   H   :    0.000289930    0.000047145    0.000145905
  39   H   :    0.000237712   -0.000201558   -0.000050340
  40   H   :    0.000231020    0.000201258    0.000249703
  41   H   :   -0.000031609   -0.000395579   -0.000129165
  42   H   :   -0.000108712   -0.000345834   -0.000088820

Difference to translation invariance:
           :    0.0000000000    0.0000000000    0.0000000000

Difference to rotation invariance:
           :   -0.0000000000   -0.0000000000   -0.0000000000

Norm of the Dispersion gradient    ...    0.0036135377
RMS gradient                       ...    0.0003219195
MAX gradient                       ...    0.0008047034

                 ---------------------------
                 EXCITED STATE GRADIENT DONE
                 ---------------------------

------------------
CARTESIAN GRADIENT
------------------

   1   C   :   -0.000016441   -0.000087129    0.000071021
   2   C   :    0.000243304    0.000083846    0.000038649
   3   C   :   -0.000006220    0.000028310    0.000034619
   4   H   :   -0.000108525   -0.000042074   -0.000036321
   5   H   :   -0.000014702    0.000013097    0.000017442
   6   C   :   -0.000058636    0.000010717    0.000008217
   7   H   :    0.000000965    0.000026777   -0.000026323
   8   H   :    0.000029099   -0.000020280   -0.000020329
   9   C   :   -0.000074949    0.000031342   -0.000074935
  10   N   :    0.000154326   -0.000088341    0.000063675
  11   H   :   -0.000009994    0.000038631   -0.000016277
  12   H   :    0.000018736   -0.000003866   -0.000020644
  13   C   :    0.000104345   -0.000001492    0.000010624
  14   C   :   -0.000087277   -0.000149921   -0.000105557
  15   H   :   -0.000090214    0.000013907   -0.000022070
  16   H   :    0.000005913   -0.000005813   -0.000028039
  17   C   :   -0.000076621   -0.000148315    0.000019571
  18   H   :   -0.000012232   -0.000026642    0.000068611
  19   H   :    0.000047308    0.000062183    0.000033016
  20   C   :    0.000100866    0.000049157    0.000054353
  21   H   :    0.000010315    0.000024688   -0.000004300
  22   H   :   -0.000008693    0.000037814    0.000013167
  23   C   :    0.000005236    0.000041583    0.000027438
  24   C   :   -0.000165617    0.000068607   -0.000061318
  25   C   :   -0.000049524   -0.000090771    0.000002511
  26   O   :   -0.000062896    0.000060111   -0.000063479
  27   C   :    0.000286181   -0.000013882    0.000300747
  28   C   :    0.000062999    0.000112448    0.000037042
  29   C   :    0.000042335   -0.000098561   -0.000106595
  30   O   :   -0.000260950    0.000011456   -0.000089524
  31   C   :   -0.000046413    0.000050235    0.000002516
  32   C   :   -0.000001124    0.000026736    0.000010085
  33   C   :   -0.000005777   -0.000008733    0.000094116
  34   N   :   -0.000039896    0.000044954    0.000001085
  35   C   :    0.000024304    0.000007237    0.000007350
  36   C   :   -0.000014867   -0.000024582   -0.000006710
  37   H   :    0.000052022   -0.000032709   -0.000013436
  38   H   :   -0.000028107    0.000032365    0.000021293
  39   H   :   -0.000028496    0.000000766   -0.000003415
  40   H   :    0.000068561   -0.000114764   -0.000031556
  41   H   :   -0.000007904    0.000003786    0.000001784
  42   H   :   -0.000030958    0.000007248   -0.000035430

Difference to translation invariance:
           :   -0.0000502155   -0.0000698755    0.0001726744

Difference to rotation invariance:
           :   -0.0004541148   -0.0003845010    0.0008091456

Norm of the Cartesian gradient     ...    0.0008213545
RMS gradient                       ...    0.0000731721
MAX gradient                       ...    0.0003007467

------------------------------------------------------------------------------
                  RELAXED CIS/TDA DENSITY POPULATION ANALYSIS
                                   IROOT 1
------------------------------------------------------------------------------
------------------------------------------------------------------------------
                           ORCA POPULATION ANALYSIS
------------------------------------------------------------------------------
Input electron density              ... NMU-1.cispre.singlet.iroot1
BaseName (.gbw .S,...)              ... NMU-1

-------
TIMINGS
-------

Total TD-DFT gradient time  ....      489.584 sec

Fock matrix formation       ....     134.282 sec  ( 27.4%)
  Coulomb formation         ....     124.471 sec  ( 92.7% of F)
  XC integration            ....       9.810 sec  (  7.3% of F)
Z-vector equation           ....     166.278 sec  ( 34.0%)
Densities                   ....       0.000 sec  (  0.0%)
One electron gradient       ....       1.637 sec  (  0.3%)
Two electron gradient       ....       0.000 sec  (  0.0%)
RI-J Coulomb gradient       ....      10.995 sec  (  2.2%)
COSX gradient               ....      27.225 sec  (  5.6%)
XC gradient                 ....      95.087 sec  ( 19.4%)
CPCM gradient               ....      10.379 sec  (  2.1%)
   A-Matrix (El+Nuc)        ....       0.246 sec  (  0.1%)
   Potential                ....      10.132 sec  (  2.1%)

Maximum memory used throughout the entire CIS-calculation: 348.6 MB
=> NOW LEAVING ORCA_CIS


-------------------------------------------------------------------------------
                          DFT DISPERSION CORRECTION                            
                                                                               
                              DFTD3 V3.1  Rev 1                                
                          USING Becke-Johnson damping                          
-------------------------------------------------------------------------------
-------------------------   ----------------
Dispersion correction           -0.098163120
-------------------------   ----------------


-------------------------   --------------------
FINAL SINGLE POINT ENERGY     -1032.695274072677
-------------------------   --------------------

------------------------------------------------------------------------------
                         ORCA GEOMETRY RELAXATION STEP
------------------------------------------------------------------------------

Reading the OPT-File                    .... done
Getting information on internals        .... done
Copying old internal coords+grads       .... done
Making the new internal coordinates     .... (2022 redundants) done
Validating the new internal coordinates .... (2022 redundants) done
Calculating the B-matrix                .... done
Calculating the G,G- and P matrices     .... done
Transforming gradient to internals      .... done
Projecting the internal gradient        .... done
Number of atoms                         ....  42
Number of internal coordinates          .... 241
Current Energy                          .... -1032.695274073 Eh
Current gradient norm                   ....     0.000821354 Eh/bohr
Maximum allowed component of the step   ....  0.300
Current trust radius                    ....  0.300
Updating the Hessian (BFGS)             .... done
Forming the augmented Hessian           .... done
Diagonalizing the augmented Hessian     .... done
Last element of RFO vector              ....  0.999796859
Lowest eigenvalues of augmented Hessian:
 -0.000005406  0.010268469  0.015172424  0.016533409  0.017801842
Length of the computed step             ....  0.020159489
The final length of the internal step   ....  0.020159489
Converting the step to Cartesian space:
 Initial RMS(Int)=    0.0012985868
Transforming coordinates:
 Iter   0:  RMS(Cart)=    0.0041167351 RMS(Int)=    0.0012983888
done
Storing new coordinates                 .... done
The predicted energy change is          ....    -0.000002704
Previously predicted energy change      ....    -0.000006350
Actually observed energy change         ....     0.000017472
Ratio of predicted to observed change   ....     2.751426538
New trust radius                        ....     0.200000000

                                .--------------------.
          ----------------------|Geometry convergence|-------------------------
          Item                value                   Tolerance       Converged
          ---------------------------------------------------------------------
          Energy change       0.0000174722            0.0000050000      NO
          RMS gradient        0.0000485608            0.0001000000      YES
          MAX gradient        0.0002292249            0.0003000000      YES
          RMS step            0.0012985868            0.0020000000      YES
          MAX step            0.0045187164            0.0040000000      NO
          ........................................................
          Max(Bonds)      0.0003      Max(Angles)    0.05
          Max(Dihed)        0.26      Max(Improp)    0.00
          ---------------------------------------------------------------------

The optimization has not yet converged - more geometry cycles are needed


    ---------------------------------------------------------------------------
                         Redundant Internal Coordinates
                            (Angstroem and degrees)

        Definition                    Value    dE/dq     Step     New-Value
    ----------------------------------------------------------------------------
     1. B(C   1,C   0)                1.5173 -0.000081  0.0000    1.5173   
     2. B(C   2,C   1)                1.5218 -0.000074 -0.0000    1.5218   
     3. B(H   3,C   1)                1.0930 -0.000017  0.0000    1.0931   
     4. B(H   4,C   1)                1.0903  0.000007 -0.0000    1.0903   
     5. B(C   5,C   2)                1.5042 -0.000093 -0.0001    1.5041   
     6. B(H   6,C   2)                1.0909 -0.000004 -0.0000    1.0909   
     7. B(H   7,C   2)                1.0960 -0.000016  0.0000    1.0961   
     8. B(C   8,C   5)                1.4284 -0.000057 -0.0001    1.4283   
     9. B(N   9,C   8)                1.3663 -0.000162 -0.0000    1.3663   
    10. B(N   9,C   0)                1.4568 -0.000064 -0.0001    1.4566   
    11. B(H  10,C   0)                1.1003 -0.000025  0.0001    1.1004   
    12. B(H  11,C   0)                1.0896 -0.000006  0.0000    1.0896   
    13. B(C  12,N   9)                1.4558 -0.000093 -0.0001    1.4557   
    14. B(C  13,C  12)                1.5165 -0.000115  0.0000    1.5166   
    15. B(H  14,C  12)                1.1004 -0.000020  0.0001    1.1005   
    16. B(H  15,C  12)                1.0890  0.000003 -0.0000    1.0890   
    17. B(C  16,C  13)                1.5216 -0.000050 -0.0000    1.5216   
    18. B(H  17,C  13)                1.0902  0.000005 -0.0000    1.0902   
    19. B(H  18,C  13)                1.0927 -0.000012  0.0000    1.0928   
    20. B(C  19,C  16)                1.5026 -0.000092 -0.0000    1.5025   
    21. B(C  19,C   8)                1.4270 -0.000031 -0.0002    1.4268   
    22. B(H  20,C  16)                1.0961 -0.000012  0.0000    1.0962   
    23. B(H  21,C  16)                1.0894  0.000010 -0.0000    1.0894   
    24. B(C  22,C   5)                1.3748 -0.000066 -0.0000    1.3748   
    25. B(C  23,C  19)                1.3824 -0.000138 -0.0000    1.3824   
    26. B(C  24,C  23)                1.4049 -0.000023 -0.0001    1.4048   
    27. B(C  24,C  22)                1.4129 -0.000059 -0.0000    1.4129   
    28. B(O  25,C  23)                1.3727 -0.000007 -0.0001    1.3726   
    29. B(C  26,O  25)                1.3948  0.000100 -0.0003    1.3944   
    30. B(C  27,C  24)                1.4177 -0.000031 -0.0002    1.4175   
    31. B(C  28,C  26)                1.4463  0.000124 -0.0002    1.4461   
    32. B(C  28,C  27)                1.4097 -0.000021 -0.0000    1.4097   
    33. B(O  29,C  26)                1.2240 -0.000225  0.0002    1.2242   
    34. B(C  30,C  28)                1.4452 -0.000003 -0.0001    1.4451   
    35. B(C  31,C  30)                1.4140  0.000021 -0.0001    1.4139   
    36. B(C  32,C  30)                1.4220 -0.000004 -0.0000    1.4220   
    37. B(N  33,C  32)                1.3275 -0.000066  0.0000    1.3276   
    38. B(C  34,N  33)                1.3401 -0.000044  0.0000    1.3401   
    39. B(C  35,C  34)                1.3945 -0.000032  0.0000    1.3945   
    40. B(C  35,C  31)                1.3797 -0.000035 -0.0000    1.3797   
    41. B(H  36,C  32)                1.0826 -0.000022 -0.0000    1.0825   
    42. B(H  37,C  35)                1.0824 -0.000011  0.0000    1.0824   
    43. B(H  38,C  34)                1.0841 -0.000021  0.0000    1.0841   
    44. B(H  39,C  31)                1.0772 -0.000113  0.0001    1.0773   
    45. B(H  40,C  22)                1.0835 -0.000005  0.0000    1.0835   
    46. B(H  41,C  27)                1.0785  0.000005 -0.0001    1.0784   
    47. A(C   1,C   0,H  10)          109.97  0.000039   -0.01    109.96   
    48. A(C   1,C   0,N   9)          111.73 -0.000017   -0.03    111.70   
    49. A(N   9,C   0,H  11)          107.33  0.000009    0.01    107.34   
    50. A(H  10,C   0,H  11)          107.32 -0.000006    0.02    107.33   
    51. A(C   1,C   0,H  11)          111.35 -0.000014    0.02    111.37   
    52. A(N   9,C   0,H  10)          109.00 -0.000011   -0.00    109.00   
    53. A(C   2,C   1,H   3)          110.34  0.000015   -0.03    110.31   
    54. A(C   0,C   1,H   3)          109.38  0.000036   -0.03    109.35   
    55. A(C   2,C   1,H   4)          111.00 -0.000001    0.03    111.03   
    56. A(H   3,C   1,H   4)          107.80 -0.000025    0.04    107.84   
    57. A(C   0,C   1,H   4)          108.95 -0.000028    0.04    108.99   
    58. A(C   0,C   1,C   2)          109.33  0.000002   -0.04    109.29   
    59. A(C   5,C   2,H   7)          109.26 -0.000012   -0.00    109.26   
    60. A(C   1,C   2,C   5)          110.90 -0.000021   -0.03    110.88   
    61. A(C   5,C   2,H   6)          109.55  0.000027    0.00    109.55   
    62. A(C   1,C   2,H   7)          109.11  0.000038   -0.01    109.09   
    63. A(C   1,C   2,H   6)          111.19 -0.000018    0.02    111.22   
    64. A(H   6,C   2,H   7)          106.72 -0.000013    0.02    106.74   
    65. A(C   2,C   5,C   8)          120.22  0.000013   -0.01    120.21   
    66. A(C   2,C   5,C  22)          120.70 -0.000006    0.01    120.70   
    67. A(C   8,C   5,C  22)          119.08 -0.000007    0.00    119.09   
    68. A(C   5,C   8,N   9)          120.37 -0.000008    0.00    120.37   
    69. A(N   9,C   8,C  19)          119.75 -0.000020   -0.00    119.75   
    70. A(C   5,C   8,C  19)          119.88  0.000028   -0.00    119.88   
    71. A(C   0,N   9,C   8)          121.34  0.000023   -0.01    121.33   
    72. A(C   8,N   9,C  12)          121.16  0.000063   -0.04    121.12   
    73. A(C   0,N   9,C  12)          116.33 -0.000084    0.04    116.37   
    74. A(H  14,C  12,H  15)          107.44 -0.000013    0.03    107.47   
    75. A(C  13,C  12,H  15)          111.32 -0.000005    0.02    111.34   
    76. A(N   9,C  12,H  15)          107.45  0.000013    0.01    107.47   
    77. A(C  13,C  12,H  14)          110.10  0.000039   -0.01    110.09   
    78. A(N   9,C  12,H  14)          109.13 -0.000005   -0.00    109.13   
    79. A(N   9,C  12,C  13)          111.26 -0.000028   -0.04    111.22   
    80. A(C  12,C  13,H  17)          109.17 -0.000044    0.04    109.21   
    81. A(C  12,C  13,C  16)          109.82  0.000011   -0.04    109.78   
    82. A(H  17,C  13,H  18)          107.81 -0.000025    0.03    107.84   
    83. A(C  16,C  13,H  18)          110.21  0.000002   -0.02    110.20   
    84. A(C  12,C  13,H  18)          109.19  0.000054   -0.05    109.15   
    85. A(C  16,C  13,H  17)          110.60  0.000002    0.03    110.62   
    86. A(H  20,C  16,H  21)          106.30 -0.000012    0.02    106.32   
    87. A(C  19,C  16,H  21)          109.68  0.000048   -0.01    109.67   
    88. A(C  13,C  16,H  21)          110.86 -0.000042    0.03    110.88   
    89. A(C  19,C  16,H  20)          109.01  0.000014   -0.02    108.99   
    90. A(C  13,C  16,C  19)          111.21 -0.000019   -0.01    111.20   
    91. A(C  13,C  16,H  20)          109.64  0.000013   -0.00    109.64   
    92. A(C  16,C  19,C  23)          120.61  0.000049   -0.02    120.59   
    93. A(C   8,C  19,C  23)          118.13 -0.000039    0.01    118.14   
    94. A(C   8,C  19,C  16)          121.26 -0.000010    0.01    121.27   
    95. A(C   5,C  22,C  24)          122.56 -0.000013   -0.00    122.56   
    96. A(C  24,C  22,H  40)          118.34  0.000016   -0.00    118.34   
    97. A(C   5,C  22,H  40)          119.10 -0.000003    0.01    119.10   
    98. A(C  24,C  23,O  25)          120.14 -0.000030    0.02    120.16   
    99. A(C  19,C  23,O  25)          116.44 -0.000008   -0.01    116.43   
   100. A(C  19,C  23,C  24)          123.42  0.000038   -0.01    123.41   
   101. A(C  23,C  24,C  27)          119.02 -0.000007    0.00    119.02   
   102. A(C  22,C  24,C  27)          124.07  0.000014   -0.01    124.06   
   103. A(C  22,C  24,C  23)          116.91 -0.000007    0.00    116.92   
   104. A(C  23,O  25,C  26)          122.94  0.000053   -0.02    122.92   
   105. A(C  28,C  26,O  29)          128.04  0.000187   -0.02    128.02   
   106. A(O  25,C  26,O  29)          113.88 -0.000146    0.02    113.90   
   107. A(O  25,C  26,C  28)          118.07 -0.000043    0.01    118.07   
   108. A(C  24,C  27,C  28)          120.97  0.000107   -0.03    120.94   
   109. A(C  28,C  27,H  41)          120.78 -0.000017    0.00    120.79   
   110. A(C  24,C  27,H  41)          118.17 -0.000089    0.02    118.19   
   111. A(C  27,C  28,C  30)          121.33 -0.000150    0.01    121.34   
   112. A(C  26,C  28,C  30)          119.82  0.000229   -0.03    119.79   
   113. A(C  26,C  28,C  27)          118.84 -0.000079    0.02    118.86   
   114. A(C  31,C  30,C  32)          115.33 -0.000072    0.02    115.35   
   115. A(C  28,C  30,C  32)          119.83 -0.000117    0.01    119.83   
   116. A(C  28,C  30,C  31)          124.83  0.000189   -0.03    124.81   
   117. A(C  35,C  31,H  39)          120.28 -0.000095    0.03    120.31   
   118. A(C  30,C  31,H  39)          119.82  0.000073   -0.02    119.79   
   119. A(C  30,C  31,C  35)          119.90  0.000022   -0.01    119.88   
   120. A(N  33,C  32,H  36)          115.44 -0.000082    0.02    115.46   
   121. A(C  30,C  32,H  36)          119.73  0.000037   -0.01    119.72   
   122. A(C  30,C  32,N  33)          124.80  0.000045   -0.01    124.79   
   123. A(C  32,N  33,C  34)          118.18  0.000017   -0.01    118.17   
   124. A(C  35,C  34,H  38)          120.97  0.000039   -0.01    120.95   
   125. A(N  33,C  34,H  38)          116.77 -0.000009    0.00    116.78   
   126. A(N  33,C  34,C  35)          122.26 -0.000030    0.01    122.27   
   127. A(C  34,C  35,H  37)          120.00  0.000034   -0.01    119.99   
   128. A(C  31,C  35,H  37)          120.46 -0.000051    0.01    120.47   
   129. A(C  31,C  35,C  34)          119.54  0.000018   -0.00    119.53   
   130. D(C   2,C   1,C   0,N   9)     56.24  0.000005    0.10     56.34   
   131. D(C   2,C   1,C   0,H  10)    -64.94  0.000004    0.13    -64.81   
   132. D(C   2,C   1,C   0,H  11)    176.24 -0.000005    0.11    176.35   
   133. D(H   3,C   1,C   0,N   9)    -64.68 -0.000038    0.18    -64.50   
   134. D(H   3,C   1,C   0,H  11)     55.32 -0.000047    0.19     55.50   
   135. D(H   3,C   1,C   0,H  10)    174.14 -0.000039    0.21    174.35   
   136. D(C   5,C   2,C   1,C   0)    -52.14 -0.000004   -0.11    -52.25   
   137. D(H   6,C   2,C   1,C   0)   -174.30 -0.000011   -0.11   -174.41   
   138. D(H   6,C   2,C   1,H   4)     65.49  0.000022   -0.15     65.34   
   139. D(H   6,C   2,C   1,H   3)    -53.96  0.000044   -0.20    -54.16   
   140. D(C   5,C   2,C   1,H   3)     68.20  0.000051   -0.20     68.00   
   141. D(C   5,C   2,C   1,H   4)   -172.36  0.000029   -0.15   -172.51   
   142. D(C   8,C   5,C   2,C   1)     26.05  0.000006    0.04     26.09   
   143. D(C   8,C   5,C   2,H   6)    149.16 -0.000012    0.06    149.21   
   144. D(C  22,C   5,C   2,C   1)   -154.38 -0.000003    0.05   -154.33   
   145. D(C   8,C   5,C   2,H   7)    -94.26 -0.000020    0.08    -94.18   
   146. D(C  22,C   5,C   2,H   6)    -31.26 -0.000021    0.06    -31.20   
   147. D(C  19,C   8,C   5,C  22)     -0.75 -0.000011    0.05     -0.70   
   148. D(C  19,C   8,C   5,C   2)    178.83 -0.000020    0.06    178.89   
   149. D(N   9,C   8,C   5,C  22)    179.00 -0.000003    0.04    179.03   
   150. D(N   9,C   8,C   5,C   2)     -1.42 -0.000012    0.04     -1.38   
   151. D(C  12,N   9,C   8,C  19)     -8.06  0.000022   -0.11     -8.17   
   152. D(C  12,N   9,C   8,C   5)    172.19  0.000013   -0.09    172.10   
   153. D(C   0,N   9,C   8,C  19)   -175.24  0.000021   -0.07   -175.31   
   154. D(C   0,N   9,C   8,C   5)      5.01  0.000013   -0.05      4.96   
   155. D(C  12,N   9,C   0,H  10)    -79.21  0.000003   -0.01    -79.22   
   156. D(C  12,N   9,C   0,C   1)    159.05 -0.000027    0.02    159.08   
   157. D(C   8,N   9,C   0,H  11)   -155.52  0.000013   -0.03   -155.55   
   158. D(C   8,N   9,C   0,H  10)     88.55  0.000021   -0.06     88.50   
   159. D(C   8,N   9,C   0,C   1)    -33.18 -0.000009   -0.02    -33.21   
   160. D(C  13,C  12,N   9,C   0)   -155.06 -0.000020    0.18   -154.89   
   161. D(H  15,C  12,N   9,C   0)    -32.97 -0.000035    0.18    -32.78   
   162. D(H  14,C  12,N   9,C   8)    -84.54 -0.000059    0.26    -84.28   
   163. D(H  14,C  12,N   9,C   0)     83.25 -0.000046    0.22     83.46   
   164. D(C  13,C  12,N   9,C   8)     37.15 -0.000032    0.22     37.37   
   165. D(H  17,C  13,C  12,H  15)     61.74  0.000039   -0.20     61.54   
   166. D(H  17,C  13,C  12,H  14)    -57.31  0.000034   -0.24    -57.55   
   167. D(H  17,C  13,C  12,N   9)   -178.43  0.000033   -0.20   -178.63   
   168. D(C  16,C  13,C  12,H  15)   -176.85  0.000021   -0.16   -177.02   
   169. D(C  16,C  13,C  12,H  14)     64.10  0.000016   -0.20     63.90   
   170. D(C  16,C  13,C  12,N   9)    -57.02  0.000015   -0.17    -57.19   
   171. D(H  20,C  16,C  13,H  17)     48.85 -0.000026    0.09     48.94   
   172. D(H  20,C  16,C  13,C  12)    -71.69  0.000020    0.04    -71.65   
   173. D(C  19,C  16,C  13,H  18)    -71.40 -0.000041    0.10    -71.30   
   174. D(C  19,C  16,C  13,H  17)    169.49 -0.000012    0.06    169.54   
   175. D(H  20,C  16,C  13,H  18)    167.97 -0.000055    0.13    168.10   
   176. D(C  19,C  16,C  13,C  12)     48.94  0.000034    0.01     48.95   
   177. D(C  23,C  19,C  16,H  20)    -80.32 -0.000008    0.06    -80.26   
   178. D(C   8,C  19,C  16,H  21)   -144.67  0.000002    0.07   -144.59   
   179. D(C   8,C  19,C  16,H  20)     99.32 -0.000017    0.07     99.40   
   180. D(C   8,C  19,C  16,C  13)    -21.68 -0.000031    0.09    -21.59   
   181. D(C  23,C  19,C   8,N   9)    179.69  0.000003   -0.04    179.65   
   182. D(C  23,C  19,C   8,C   5)     -0.56  0.000011   -0.06     -0.62   
   183. D(C  23,C  19,C  16,C  13)    158.67 -0.000021    0.08    158.75   
   184. D(C  16,C  19,C   8,N   9)      0.04  0.000012   -0.06     -0.02   
   185. D(C  16,C  19,C   8,C   5)    179.79  0.000020   -0.07    179.71   
   186. D(H  40,C  22,C   5,C   8)   -179.20  0.000001   -0.02   -179.22   
   187. D(H  40,C  22,C   5,C   2)      1.22  0.000009   -0.02      1.20   
   188. D(C  24,C  22,C   5,C   8)      1.23  0.000005   -0.01      1.22   
   189. D(C  24,C  22,C   5,C   2)   -178.35  0.000014   -0.02   -178.37   
   190. D(O  25,C  23,C  19,C   8)   -178.59  0.000006    0.01   -178.59   
   191. D(C  24,C  23,C  19,C  16)   -178.85 -0.000015    0.04   -178.81   
   192. D(C  24,C  23,C  19,C   8)      1.49 -0.000005    0.03      1.52   
   193. D(O  25,C  23,C  19,C  16)      1.06 -0.000003    0.02      1.08   
   194. D(C  27,C  24,C  23,O  25)     -0.79 -0.000020    0.07     -0.72   
   195. D(C  27,C  24,C  23,C  19)    179.12 -0.000009    0.05    179.17   
   196. D(C  22,C  24,C  23,O  25)    179.04 -0.000012    0.03    179.07   
   197. D(C  22,C  24,C  23,C  19)     -1.05 -0.000001    0.01     -1.04   
   198. D(C  27,C  24,C  22,H  40)     -0.11  0.000013   -0.06     -0.17   
   199. D(C  27,C  24,C  22,C   5)    179.46  0.000008   -0.06    179.40   
   200. D(C  23,C  24,C  22,H  40)   -179.94  0.000004   -0.02   -179.95   
   201. D(C  23,C  24,C  22,C   5)     -0.37 -0.000000   -0.02     -0.39   
   202. D(C  26,O  25,C  23,C  24)      1.89 -0.000014    0.06      1.95   
   203. D(C  26,O  25,C  23,C  19)   -178.03 -0.000025    0.08   -177.95   
   204. D(O  29,C  26,O  25,C  23)    177.19 -0.000035    0.08    177.26   
   205. D(C  28,C  26,O  25,C  23)     -1.67  0.000048   -0.18     -1.85   
   206. D(H  41,C  27,C  24,C  23)    176.38  0.000035   -0.16    176.23   
   207. D(H  41,C  27,C  24,C  22)     -3.44  0.000026   -0.12     -3.55   
   208. D(C  28,C  27,C  24,C  23)     -0.44  0.000018   -0.06     -0.50   
   209. D(C  28,C  27,C  24,C  22)    179.74  0.000010   -0.02    179.72   
   210. D(C  30,C  28,C  27,H  41)      5.09 -0.000000    0.02      5.11   
   211. D(C  30,C  28,C  27,C  24)   -178.17  0.000014   -0.08   -178.25   
   212. D(C  26,C  28,C  27,H  41)   -176.11  0.000001    0.03   -176.08   
   213. D(C  26,C  28,C  27,C  24)      0.62  0.000015   -0.07      0.56   
   214. D(C  30,C  28,C  26,O  29)      0.53  0.000050   -0.10      0.43   
   215. D(C  30,C  28,C  26,O  25)    179.20 -0.000051    0.20    179.40   
   216. D(C  27,C  28,C  26,O  29)   -178.28  0.000053   -0.12   -178.40   
   217. D(C  27,C  28,C  26,O  25)      0.39 -0.000048    0.19      0.57   
   218. D(C  32,C  30,C  28,C  27)     17.79 -0.000035    0.22     18.01   
   219. D(C  32,C  30,C  28,C  26)   -160.99 -0.000033    0.21   -160.78   
   220. D(C  31,C  30,C  28,C  27)   -160.81 -0.000022    0.19   -160.62   
   221. D(C  31,C  30,C  28,C  26)     20.41 -0.000019    0.18     20.59   
   222. D(H  39,C  31,C  30,C  32)   -179.10  0.000012   -0.01   -179.11   
   223. D(H  39,C  31,C  30,C  28)     -0.44 -0.000002    0.02     -0.42   
   224. D(C  35,C  31,C  30,C  32)     -0.06  0.000011   -0.03     -0.09   
   225. D(C  35,C  31,C  30,C  28)    178.60 -0.000003    0.00    178.60   
   226. D(H  36,C  32,C  30,C  31)   -178.08  0.000001    0.03   -178.05   
   227. D(H  36,C  32,C  30,C  28)      3.19  0.000009    0.00      3.19   
   228. D(N  33,C  32,C  30,C  31)     -0.36 -0.000016    0.03     -0.33   
   229. D(N  33,C  32,C  30,C  28)   -179.09 -0.000007    0.00   -179.09   
   230. D(C  34,N  33,C  32,H  36)    178.43 -0.000004   -0.01    178.42   
   231. D(C  34,N  33,C  32,C  30)      0.62  0.000009   -0.01      0.61   
   232. D(H  38,C  34,N  33,C  32)    179.41 -0.000003    0.01    179.42   
   233. D(C  35,C  34,N  33,C  32)     -0.46  0.000002   -0.01     -0.47   
   234. D(H  37,C  35,C  34,H  38)     -0.40  0.000001   -0.01     -0.41   
   235. D(H  37,C  35,C  34,N  33)    179.48 -0.000004    0.00    179.48   
   236. D(C  31,C  35,C  34,H  38)   -179.81 -0.000000   -0.01   -179.81   
   237. D(C  31,C  35,C  34,N  33)      0.07 -0.000006    0.01      0.08   
   238. D(H  37,C  35,C  31,H  39)     -0.18 -0.000003   -0.00     -0.18   
   239. D(H  37,C  35,C  31,C  30)   -179.21 -0.000003    0.01   -179.20   
   240. D(C  34,C  35,C  31,H  39)    179.23 -0.000001   -0.01    179.22   
   241. D(C  34,C  35,C  31,C  30)      0.20 -0.000001    0.01      0.20   
    ----------------------------------------------------------------------------

Geometry step timings:
Preparation and reading OPT file:      0.001 s ( 3.528 %)
Internal coordinates            :      0.000 s ( 0.111 %)
B/P matrices and projection     :      0.004 s (18.196 %)
Hessian update/contruction      :      0.010 s (47.213 %)
Making the step                 :      0.002 s (11.464 %)
Converting the step to Cartesian:      0.000 s ( 1.370 %)
Storing new data                :      0.001 s ( 5.343 %)
Checking convergence            :      0.000 s ( 0.053 %)
Final printing                  :      0.003 s (12.718 %)
Total time                      :      0.021 s

Time for energy+gradient        :    866.565 s
Time for complete geometry iter :    866.662 s

         *************************************************************
         *                GEOMETRY OPTIMIZATION CYCLE   4            *
         *************************************************************
---------------------------------
CARTESIAN COORDINATES (ANGSTROEM)
---------------------------------
  C     -6.553704   -1.484085   -0.137631
  C     -6.528135   -2.587382   -1.178902
  C     -5.560411   -3.674853   -0.735321
  H     -6.216255   -2.170938   -2.140193
  H     -7.536050   -2.985613   -1.298586
  C     -4.216515   -3.090697   -0.396046
  H     -5.442801   -4.437278   -1.506664
  H     -5.968624   -4.179606    0.147835
  C     -4.110594   -1.731574    0.030043
  N     -5.223547   -0.942778    0.106237
  H     -6.962446   -1.869926    0.808405
  H     -7.188544   -0.656203   -0.451866
  C     -5.164640    0.386274    0.697128
  C     -3.861989    1.082603    0.353278
  H     -5.270605    0.300471    1.789140
  H     -6.022730    0.946246    0.328397
  C     -2.686743    0.235580    0.818742
  H     -3.842119    2.062426    0.830872
  H     -3.811918    1.235927   -0.727513
  C     -2.835211   -1.191582    0.372869
  H     -2.623374    0.262756    1.912750
  H     -1.745671    0.639696    0.447511
  C     -3.076894   -3.854817   -0.482317
  C     -1.732583   -2.021330    0.290932
  C     -1.799655   -3.356363   -0.141083
  O     -0.527988   -1.474679    0.657339
  C      0.675108   -2.176202    0.587490
  C     -0.606477   -4.118895   -0.206209
  C      0.635729   -3.552424    0.145012
  O      1.654636   -1.513831    0.904401
  C      1.862182   -4.310225    0.046255
  C      3.064444   -3.991004    0.718353
  C      1.904702   -5.486388   -0.751789
  N      2.970534   -6.264209   -0.898180
  C      4.090685   -5.932899   -0.241311
  C      4.169895   -4.803696    0.573079
  H      1.032799   -5.779476   -1.322519
  H      5.091171   -4.575430    1.093479
  H      4.944190   -6.588989   -0.369438
  H      3.107890   -3.122502    1.354203
  H     -3.155357   -4.882130   -0.817788
  H     -0.681065   -5.159325   -0.479934

----------------------------
CARTESIAN COORDINATES (A.U.)
----------------------------
  NO LB      ZA    FRAG     MASS         X           Y           Z
   0 C     6.0000    0    12.011  -12.384705   -2.804515   -0.260084
   1 C     6.0000    0    12.011  -12.336387   -4.889444   -2.227802
   2 C     6.0000    0    12.011  -10.507654   -6.944467   -1.389554
   3 H     1.0000    0     1.008  -11.747019   -4.102478   -4.044378
   4 H     1.0000    0     1.008  -14.241072   -5.641992   -2.453971
   5 C     6.0000    0    12.011   -7.968059   -5.840570   -0.748418
   6 H     1.0000    0     1.008  -10.285403   -8.385239   -2.847183
   7 H     1.0000    0     1.008  -11.279065   -7.898310    0.279367
   8 C     6.0000    0    12.011   -7.767897   -3.272201    0.056772
   9 N     7.0000    0    14.007   -9.871072   -1.781593    0.200759
  10 H     1.0000    0     1.008  -13.157117   -3.533648    1.527663
  11 H     1.0000    0     1.008  -13.584379   -1.240045   -0.853903
  12 C     6.0000    0    12.011   -9.759755    0.729953    1.317382
  13 C     6.0000    0    12.011   -7.298101    2.045823    0.667599
  14 H     1.0000    0     1.008   -9.959999    0.567808    3.380984
  15 H     1.0000    0     1.008  -11.381310    1.788146    0.620580
  16 C     6.0000    0    12.011   -5.077209    0.445182    1.547198
  17 H     1.0000    0     1.008   -7.260552    3.897421    1.570120
  18 H     1.0000    0     1.008   -7.203482    2.335563   -1.374801
  19 C     6.0000    0    12.011   -5.357772   -2.251763    0.704621
  20 H     1.0000    0     1.008   -4.957459    0.496537    3.614574
  21 H     1.0000    0     1.008   -3.298840    1.208850    0.845674
  22 C     6.0000    0    12.011   -5.814487   -7.284549   -0.911447
  23 C     6.0000    0    12.011   -3.274108   -3.819760    0.549781
  24 C     6.0000    0    12.011   -3.400856   -6.342608   -0.266608
  25 O     8.0000    0    15.999   -0.997754   -2.786740    1.242191
  26 C     6.0000    0    12.011    1.275770   -4.112425    1.110196
  27 C     6.0000    0    12.011   -1.146076   -7.783584   -0.389679
  28 C     6.0000    0    12.011    1.201354   -6.713109    0.274033
  29 O     8.0000    0    15.999    3.126809   -2.860727    1.709070
  30 C     6.0000    0    12.011    3.519013   -8.145144    0.087409
  31 C     6.0000    0    12.011    5.790960   -7.541904    1.357490
  32 C     6.0000    0    12.011    3.599365  -10.367770   -1.420675
  33 N     7.0000    0    14.007    5.613496  -11.837639   -1.697314
  34 C     6.0000    0    12.011    7.730274  -11.211554   -0.456012
  35 C     6.0000    0    12.011    7.879960   -9.077670    1.082963
  36 H     1.0000    0     1.008    1.951707  -10.921626   -2.499199
  37 H     1.0000    0     1.008    9.620919   -8.646310    2.066375
  38 H     1.0000    0     1.008    9.343165  -12.451384   -0.698137
  39 H     1.0000    0     1.008    5.873062   -5.900674    2.559072
  40 H     1.0000    0     1.008   -5.962761   -9.225889   -1.545396
  41 H     1.0000    0     1.008   -1.287027   -9.749711   -0.906943

--------------------------------
INTERNAL COORDINATES (ANGSTROEM)
--------------------------------
 C      0   0   0     0.000000000000     0.00000000     0.00000000
 C      1   0   0     1.517288344913     0.00000000     0.00000000
 C      2   1   0     1.521791034109   109.28691811     0.00000000
 H      2   1   3     1.093057579975   109.34849055   239.15625270
 H      2   1   3     1.090323932439   108.98610074   121.49683328
 C      3   2   1     1.504128430905   110.87857782   307.74539687
 H      3   2   1     1.090914407569   111.21576245   185.59074025
 H      3   2   1     1.096073134808   109.09343332    68.11848544
 C      6   3   2     1.428280454499   120.20622980    26.09142021
 N      9   6   3     1.366260264148   120.37191847   358.62037520
 H      1   2   3     1.100421151009   109.95534667   295.19437237
 H      1   2   3     1.089566085543   111.37089328   176.34865129
 C     10   9   6     1.455679944389   121.11723436   172.09685500
 C     13  10   9     1.516577165861   111.21875992    37.36502792
 H     13  10   9     1.100490540899   109.12990579   275.71874520
 H     13  10   9     1.088967155986   107.46698949   159.46985526
 C     14  13  10     1.521613044499   109.78395475   302.81073432
 H     14  13  10     1.090203603768   109.20738502   181.36521360
 H     14  13  10     1.092760478685   109.14883381    63.69574174
 C      9   6   3     1.426788105741   119.87519957   178.88969880
 H     17  14  13     1.096178841647   109.64219346   288.35116111
 H     17  14  13     1.089375607859   110.88405586   171.25549192
 C      6   3   2     1.374794151733   120.70520451   205.67349755
 C     20   9   6     1.382383494481   118.13673728   359.37845842
 C     24  20   9     1.404794991407   123.40601471     1.52049497
 O     24  20   9     1.372636342196   116.43084206   181.41485762
 C     26  24  20     1.394436868872   122.91774387   182.04964024
 C     25  24  20     1.417522546189   119.02292172   179.16568503
 C     28  25  24     1.409723954116   120.93777171   359.50345476
 O     27  26  24     1.224189951118   113.90234727   177.26298781
 C     29  28  25     1.445060692921   121.34010679   181.75089583
 C     31  29  28     1.413878666338   124.80647895   199.37866163
 C     31  29  28     1.421984698320   119.83372007    18.01296539
 N     33  31  29     1.327567512490   124.78553194   180.90841087
 C     34  33  31     1.340141631761   118.17458560     0.61092913
 C     32  31  29     1.379708696072   119.88496332   178.60124703
 H     33  31  29     1.082519671870   119.71890402     3.18973545
 H     36  32  31     1.082436784168   120.47032858   180.80459779
 H     35  34  33     1.084131903134   116.77557579   179.42018105
 H     32  31  29     1.077259540509   119.79493385   359.57870491
 H     23   6   3     1.083545203720   119.10192337     1.19568241
 H     28  25  24     1.078416526787   118.19199247   176.22670184

---------------------------
INTERNAL COORDINATES (A.U.)
---------------------------
 C      0   0   0     0.000000000000     0.00000000     0.00000000
 C      1   0   0     2.867259438075     0.00000000     0.00000000
 C      2   1   0     2.875768287522   109.28691811     0.00000000
 H      2   1   3     2.065579474759   109.34849055   239.15625270
 H      2   1   3     2.060413629569   108.98610074   121.49683328
 C      3   2   1     2.842390804655   110.87857782   307.74539687
 H      3   2   1     2.061529465855   111.21576245   185.59074025
 H      3   2   1     2.071278047537   109.09343332    68.11848544
 C      6   3   2     2.699058901435   120.20622980    26.09142021
 N      9   6   3     2.581857726899   120.37191847   358.62037520
 H      1   2   3     2.079494607382   109.95534667   295.19437237
 H      1   2   3     2.058981506484   111.37089328   176.34865129
 C     10   9   6     2.750836433538   121.11723436   172.09685500
 C     13  10   9     2.865915504435   111.21875992    37.36502792
 H     13  10   9     2.079625735270   109.12990579   275.71874520
 H     13  10   9     2.057849693648   107.46698949   159.46985526
 C     14  13  10     2.875431935904   109.78395475   302.81073432
 H     14  13  10     2.060186241336   109.20738502   181.36521360
 H     14  13  10     2.065018034687   109.14883381    63.69574174
 C      9   6   3     2.696238770986   119.87519957   178.88969880
 H     17  14  13     2.071477804513   109.64219346   288.35116111
 H     17  14  13     2.058621555827   110.88405586   171.25549192
 C      6   3   2     2.597984437291   120.70520451   205.67349755
 C     20   9   6     2.612326216623   118.13673728   359.37845842
 C     24  20   9     2.654677808064   123.40601471     1.52049497
 O     24  20   9     2.593906768217   116.43084206   181.41485762
 C     26  24  20     2.635103793210   122.91774387   182.04964024
 C     25  24  20     2.678729400955   119.02292172   179.16568503
 C     28  25  24     2.663992197709   120.93777171   359.50345476
 O     27  26  24     2.313383743511   113.90234727   177.26298781
 C     29  28  25     2.730768956514   121.34010679   181.75089583
 C     31  29  28     2.671843465972   124.80647895   199.37866163
 C     31  29  28     2.687161646452   119.83372007    18.01296539
 N     33  31  29     2.508739022898   124.78553194   180.90841087
 C     34  33  31     2.532500664694   118.17458560     0.61092913
 C     32  31  29     2.607271580165   119.88496332   178.60124703
 H     33  31  29     2.045665714416   119.71890402     3.18973545
 H     36  32  31     2.045509079360   120.47032858   180.80459779
 H     35  34  33     2.048712389970   116.77557579   179.42018105
 H     32  31  29     2.035725506716   119.79493385   359.57870491
 H     23   6   3     2.047603688755   119.10192337     1.19568241
 H     28  25  24     2.037911893922   118.19199247   176.22670184

------------------------------------------------------------------------------
                   ___                                                        
                  /   \      - P O W E R E D   B Y -                         
                 /     \                                                     
                 |  |  |   _    _      __       _____    __    __             
                 |  |  |  | |  | |    /  \     |  _  \  |  |  /  |          
                  \  \/   | |  | |   /    \    | | | |  |  | /  /          
                 / \  \   | |__| |  /  /\  \   | |_| |  |  |/  /          
                |  |  |   |  __  | /  /__\  \  |    /   |      \           
                |  |  |   | |  | | |   __   |  |    \   |  |\   \          
                \     /   | |  | | |  |  |  |  | |\  \  |  | \   \       
                 \___/    |_|  |_| |__|  |__|  |_| \__\ |__|  \__/        
                                                                              
                      - O R C A' S   B I G   F R I E N D -                    
                                      &                                       
                       - I N T E G R A L  F E E D E R -                       
                                                                              
 v1 FN, 2020, v2 2021, v3 2022-2024                                           
------------------------------------------------------------------------------


----------------------
SHARK INTEGRAL PACKAGE
----------------------

Number of atoms                             ...     42
Number of basis functions                   ...    684
Number of shells                            ...    312
Maximum angular momentum                    ...      2
Integral batch strategy                     ... SHARK/LIBINT Hybrid
RI-J (if used) integral strategy            ... SPLIT-RIJ (Revised 2003 algorithm where possible)
Printlevel                                  ...      1
Contraction scheme used                     ... SEGMENTED contraction
Prescreening option                         ... SCHWARTZ
   Thresh                                   ... 2.500e-11
   Tcut                                     ... 2.500e-12
   Tpresel                                  ... 2.500e-12 
Coulomb Range Separation                    ... NOT USED
Exchange Range Separation                   ... NOT USED
Multipole approximations                    ... NOT USED
Finite Nucleus Model                        ... NOT USED
CABS basis                                  ... NOT available
Auxiliary Coulomb fitting basis             ... AVAILABLE
   # of basis functions in Aux-J            ...   1374
   # of shells in Aux-J                     ...    450
   Maximum angular momentum in Aux-J        ...      4
Auxiliary J/K fitting basis                 ... NOT available
Auxiliary Correlation fitting basis         ... AVAILABLE
   # of basis functions in Aux-C            ...   2094
   # of shells in Aux-C                     ...    654
   Maximum angular momentum in Aux-C        ...      4
Auxiliary 'external' fitting basis          ... NOT available

Checking pre-screening integrals            ... done (  0.0 sec) Dimension = 312
Check shell pair data                       ... done (  0.0 sec)
Shell pair information
Shell pair cut-off parameter TPreSel        ...   2.5e-12
Total number of shell pairs                 ...     48828
Shell pairs after pre-screening             ...     32413
Total number of primitive shell pairs       ...    159912
Primitive shell pairs kept                  ...     69771
          la=0 lb=0:   9552 shell pairs
          la=1 lb=0:  10757 shell pairs
          la=1 lb=1:   3024 shell pairs
          la=2 lb=0:   5320 shell pairs
          la=2 lb=1:   3004 shell pairs
          la=2 lb=2:    756 shell pairs

Calculating one electron integrals          ... done (  0.1 sec)
Calculating RI/J V-Matrix + Cholesky decomp.... done (  0.4 sec)
Calculating RI/C V-Matrix + Cholesky decomp.... done (  0.9 sec)
Calculating Nuclear repulsion               ... done (  0.0 sec) ENN=   1942.780234592419 Eh

Diagonalization of the overlap matrix:
Smallest eigenvalue                        ... 3.461e-06
Time for diagonalization                   ...    0.034 sec
Threshold for overlap eigenvalues          ... 1.000e-07
Number of eigenvalues below threshold      ... 0
Time for construction of square roots      ...    0.058 sec
Total time needed                          ...    0.102 sec

-------------------
DFT GRID GENERATION
-------------------

General Integration Accuracy     IntAcc      ... 4.388
Radial Grid Type                 RadialGrid  ... OptM3 with GC (2021)
Angular Grid (max. ang.)         AngularGrid ... 4 (Lebedev-302)
Angular grid pruning method      GridPruning ... 4 (adaptive)
Weight generation scheme         WeightScheme... mBecke (2022)
Basis function cutoff            BFCut       ... 1.0000e-11
Integration weight cutoff        WCut        ... 1.0000e-14
Partially contracted basis set               ... off
Rotationally invariant grid construction     ... off
Angular grids for H and He will be reduced by one unit

Total number of grid points                  ...   200231
Total number of batches                      ...     3150
Average number of points per batch           ...       63
Average number of grid points per atom       ...     4767

--------------------
COSX GRID GENERATION
--------------------

GRIDX 1
-------
General Integration Accuracy     IntAcc      ... 3.816
Radial Grid Type                 RadialGrid  ... OptM3 with GC (2021)
Angular Grid (max. ang.)         AngularGrid ... 1 (Lebedev-50)
Angular grid pruning method      GridPruning ... 4 (adaptive)
Weight generation scheme         WeightScheme... mBecke (2022)
Basis function cutoff            BFCut       ... 1.0000e-11
Integration weight cutoff        WCut        ... 1.0000e-14
Partially contracted basis set               ... on
Rotationally invariant grid construction     ... off
Angular grids for H and He will be reduced by one unit

Total number of grid points                  ...    25422
Total number of batches                      ...      226
Average number of points per batch           ...      112
Average number of grid points per atom       ...      605
UseSFitting                                  ... on

GRIDX 2
-------
General Integration Accuracy     IntAcc      ... 4.020
Radial Grid Type                 RadialGrid  ... OptM3 with GC (2021)
Angular Grid (max. ang.)         AngularGrid ... 2 (Lebedev-110)
Angular grid pruning method      GridPruning ... 4 (adaptive)
Weight generation scheme         WeightScheme... mBecke (2022)
Basis function cutoff            BFCut       ... 1.0000e-11
Integration weight cutoff        WCut        ... 1.0000e-14
Partially contracted basis set               ... on
Rotationally invariant grid construction     ... off
Angular grids for H and He will be reduced by one unit

Total number of grid points                  ...    55234
Total number of batches                      ...      453
Average number of points per batch           ...      121
Average number of grid points per atom       ...     1315
UseSFitting                                  ... on

GRIDX 3
-------
General Integration Accuracy     IntAcc      ... 4.338
Radial Grid Type                 RadialGrid  ... OptM3 with GC (2021)
Angular Grid (max. ang.)         AngularGrid ... 3 (Lebedev-194)
Angular grid pruning method      GridPruning ... 4 (adaptive)
Weight generation scheme         WeightScheme... mBecke (2022)
Basis function cutoff            BFCut       ... 1.0000e-11
Integration weight cutoff        WCut        ... 1.0000e-14
Partially contracted basis set               ... on
Rotationally invariant grid construction     ... off
Angular grids for H and He will be reduced by one unit

Total number of grid points                  ...   120910
Total number of batches                      ...      972
Average number of points per batch           ...      124
Average number of grid points per atom       ...     2879
UseSFitting                                  ... on
Initializing property integral containers    ... done (  0.0 sec)

SHARK setup successfully completed in   7.6 seconds

Maximum memory used throughout the entire STARTUP-calculation: 139.8 MB
Occupation numbers will be reassigned to an Aufbau configuration
             **** ENERGY FILE WAS UPDATED (NMU-1.en.tmp) ****
Finished Guess after   1.0 sec
Maximum memory used throughout the entire GUESS-calculation: 88.9 MB
--------------------
CPCM SOLVATION MODEL
--------------------
CPCM parameters:
  Epsilon                                         ...      80.1510
  Refrac                                          ...       1.3328
  Rsolv                                           ...       1.3000
  Surface type                                    ... GAUSSIAN VDW
  Discretization scheme                           ... Constant charge density
    Threshold for H atoms                         ...       5.0000 (charges/Ang^2)
    Threshold for non-H atoms                     ...       5.0000 (charges/Ang^2)
  Epsilon function type                           ...         CPCM
Solvent:                                          ... WATER
Radii:
  Scheme                                          ... Element-dependent radii
  Radius for C  used is    3.8550 Bohr (=   2.0400 Ang.)
  Radius for H  used is    2.4944 Bohr (=   1.3200 Ang.)
  Radius for N  used is    3.5149 Bohr (=   1.8600 Ang.)
  Radius for O  used is    3.4469 Bohr (=   1.8240 Ang.)
Calculating surface                               ...        done! (  0.0s)
Cavity surface points                             ...         3530
Cavity Volume                                     ...    2459.9534
Cavity Surface-area                               ...    1212.1944
Calculating surface distance matrix               ...        done! (  0.0s)
Performing Cholesky decomposition & store         ...        done! (  2.2s)
Overall time for CPCM initialization              ...                 2.3s

----------------------------------------D-I-I-S--------------------------------------------
Iteration    Energy (Eh)           Delta-E    RMSDP     MaxDP     DIISErr   Damp  Time(sec)
-------------------------------------------------------------------------------------------
               ***  Starting incremental Fock matrix formation  ***
                              *** Initializing SOSCF ***
---------------------------------------S-O-S-C-F--------------------------------------
Iteration    Energy (Eh)           Delta-E    RMSDP     MaxDP     MaxGrad    Time(sec)
--------------------------------------------------------------------------------------
    1    -1032.6975228375642928     0.00e+00  1.76e-04  1.91e-02  7.52e-05    39.4
               *** Restarting incremental Fock matrix formation ***
    2    -1032.6975523992230137    -2.96e-05  2.99e-05  2.52e-03  9.28e-05    38.7
    3    -1032.6975555226083543    -3.12e-06  7.42e-06  3.74e-04  2.74e-05    23.9
    4    -1032.6975552016690472     3.21e-07  5.19e-06  3.30e-04  6.04e-05    23.5
    5    -1032.6975556704931023    -4.69e-07  2.63e-06  1.52e-04  4.82e-06    20.8
    6    -1032.6975556589206917     1.16e-08  2.14e-06  1.56e-04  7.81e-06    18.4
    7    -1032.6975556736786075    -1.48e-08  2.62e-06  1.33e-04  2.26e-06    16.6
                  *** Gradient check signals convergence ***

               *****************************************************
               *                     SUCCESS                       *
               *           SCF CONVERGED AFTER   7 CYCLES          *
               *****************************************************

Recomputing exchange energy using gridx3       ... done (   62.161 sec)
Old exchange energy                            :    -27.996446784 Eh
New exchange energy                            :    -27.996433608 Eh
Exchange energy change after final integration :      0.000013176 Eh
Total energy after final integration           :  -1032.697542497 Eh
             **** ENERGY FILE WAS UPDATED (NMU-1.en.tmp) ****

----------------
TOTAL SCF ENERGY
----------------

Total Energy       :      -1032.69754249725133 Eh          -28101.12877 eV

Components:
Nuclear Repulsion  :       1942.78023459241854 Eh           52865.73783 eV
Electronic Energy  :      -2975.44964384979585 Eh          -80966.10105 eV
One Electron Energy:      -5261.62091138749020 Eh         -143175.98393 eV
Two Electron Energy:       2286.17126753769435 Eh           62209.88288 eV
CPCM Dielectric    :         -0.02814641630111 Eh              -0.76590 eV

Virial components:
Potential Energy   :      -2060.88143980310906 Eh          -56079.43500 eV
Kinetic Energy     :       1028.18389730585795 Eh           27978.30624 eV
Virial Ratio       :          2.00438992013318

DFT components:
N(Alpha)           :       83.999947089019 electrons
N(Beta)            :       83.999947089019 electrons
N(Total)           :      167.999894178037 electrons
E(X)               :     -111.268663445328 Eh       
E(C)               :       -6.755507701925 Eh       
E(XC)              :     -118.024171147253 Eh       

CPCM Solvation Model Properties:
Surface-charge          :         -0.03915568263048
Corrected charge        :          0.00000000000000
Outlying charge corr.   :          0.00007902641553 Eh               0.00215 eV
Free-energy (cav+disp)  :  This term is not implemented in the current solvation scheme

---------------
SCF CONVERGENCE
---------------

  Last Energy change         ...    1.4758e-08  Tolerance :   1.0000e-08
  Last MAX-Density change    ...    1.3345e-04  Tolerance :   1.0000e-07
  Last RMS-Density change    ...    2.6188e-06  Tolerance :   5.0000e-09
  Last DIIS Error            ...    1.6270e-03  Tolerance :   5.0000e-07
  Last Orbital Gradient      ...    2.2649e-06  Tolerance :   1.0000e-05
  Last Orbital Rotation      ...    1.0368e-05  Tolerance :   1.0000e-05


Total SCF time: 0 days 0 hours 4 min 7 sec 
Finished LeanSCF after 247.6 sec

Maximum memory used throughout the entire LEANSCF-calculation: 170.3 MB

------------------------------------------------------------------------------
                         ORCA PROPERTY INTEGRAL CALCULATIONS
------------------------------------------------------------------------------

GBWName                                   ... NMU-1.gbw
Number of atoms                           ...     42
Number of basis functions                 ...    684
Max core memory                           ...   1024 MB

Dipole integrals                          ... YES
Quadrupole integrals                      ...  NO
Linear momentum integrals                 ... YES
Angular momentum integrals                ... YES
Higher moments length integrals           ...  NO
Higher moments velocity integrals         ...  NO
Kinetic energy integrals                  ...  NO
GIAO right hand sides                     ...  NO
GIAO dipole derivative integrals          ...  NO
SOC integrals                             ...  NO
EPR diamagnetic integrals (GIAO)          ...  NO
EPR gauge integrals                       ...  NO
Field gradient integrals                  ...  NO (   0 nuclei)
Spin-dipole/Fermi contact integrals       ...  NO (   0 nuclei)
Contact density integrals                 ...  NO (   0 nuclei)
Nucleus-orbit integrals                   ...  NO (   0 nuclei)
Geometric perturbations                   ...  NO (  42 nuclei)

Choice of electric origin   ... Center of mass
Position of electric origin ... ( -2.6981, -5.0961,  0.1059) 
Choice of magnetic origin   ... GIAO
Position of magnetic origin ... (  0.0000,  0.0000,  0.0000) 

Calculating integrals                     ... Electric Dipole (Length)     done (  0.2 sec)
Calculating integrals                     ... Linear Momentum              done (  0.3 sec)
Calculating integrals                     ... Angular Momentum  (ElOri)    done (  0.6 sec)

Property integrals calculated in   1.1 sec

Maximum memory used throughout the entire PROPINT-calculation: 91.8 MB
------------------------------------------------------------------------------
                        ORCA TD-DFT/TDA CALCULATION
------------------------------------------------------------------------------

Input orbitals are from        ... NMU-1.gbw
CI-vector output               ... NMU-1.cis
Solver                         ... FN-2001
Tamm-Dancoff approximation     ... operative
CIS-Integral strategy          ... AO-integrals
Integral handling              ... AO integral Direct
Max. core memory used          ... 512 MB
Reference state                ... RHF
Generation of triplets         ... off
Follow IRoot                   ... off
Number of operators            ... 1
Orbital ranges used for CIS calculation:
 Operator 0:  Orbitals  24... 83  to  84...683
XAS localization array:
 Operator 0:  Orbitals  -1... -1

-------------------
XC-INTEGRATION GRID
-------------------

General Integration Accuracy     IntAcc      ... 3.467
Radial Grid Type                 RadialGrid  ... OptM3 with GC (2021)
Angular Grid (max. ang.)         AngularGrid ... 1 (Lebedev-50)
Angular grid pruning method      GridPruning ... 4 (adaptive)
Weight generation scheme         WeightScheme... mBecke (2022)
Basis function cutoff            BFCut       ... 1.0000e-11
Integration weight cutoff        WCut        ... 1.0000e-14
Partially contracted basis set               ... off
Rotationally invariant grid construction     ... off
Angular grids for H and He will be reduced by one unit

Total number of grid points                  ...    29192
Total number of batches                      ...      474
Average number of points per batch           ...       61
Average number of grid points per atom       ...      695

---------------------
COSX-INTEGRATION GRID
---------------------

General Integration Accuracy     IntAcc      ... 3.067
Radial Grid Type                 RadialGrid  ... OptM3 with GC (2021)
Angular Grid (max. ang.)         AngularGrid ... 1 (Lebedev-50)
Angular grid pruning method      GridPruning ... 4 (adaptive)
Weight generation scheme         WeightScheme... mBecke (2022)
Basis function cutoff            BFCut       ... 1.0000e-11
Integration weight cutoff        WCut        ... 1.0000e-14
Partially contracted basis set               ... on
Rotationally invariant grid construction     ... off
Angular grids for H and He will be reduced by one unit

Total number of grid points                  ...    13514
Total number of batches                      ...      134
Average number of points per batch           ...      100
Average number of grid points per atom       ...      322

---------------
TD-DFT XC SETUP
---------------

DFT calculation                         ... on
Name of the grid file                   ... NMU-1.grid_cis.tmp
RI-approximation                        ... on
Aux-basis dimension                     ... 2094
Exchange functional (TD-DFT)            ... B88
   X-Alpha parameter    XAlpha (TD-DFT) ...  0.666667
   Becke's b parameter  XBeta (TD-DFT)  ...  0.004200
Correlation functional (TD-DFT)         ... LYP
 LDA part of GGA corr.  LDAOpt (TD-DFT) ... VWN-5
Hybrid DFT                              ... on
   Exchange mixing (TD-DFT)             ...  0.200
   GGA exch. scaling (TD-DFT)           ...  0.720
   GGA corr. scaling (TD-DFT)           ...  0.810

Building densities             ... done
Calculating rho(r) on the grid ... done
Building xc-kernel on the grid ... done
                    *** TD-DFT CALCULATION INITIALIZED ***

-----------------------------
    LR-CPCM (equilibrium)
-----------------------------

Setting up LR-CPCM             ... done

------------------------
DAVIDSON-DIAGONALIZATION
------------------------

Dimension of the eigenvalue problem            ...  36000
Number of roots to be determined               ...      1
Maximum size of the expansion space            ...     10
Maximum number of iterations                   ...    100
Convergence tolerance for the residual         ...    2.500e-07
Convergence tolerance for the energies         ...    2.500e-07
Orthogonality tolerance                        ...    1.000e-14
Level Shift                                    ...    0.000e+00
Constructing the preconditioner                ... o.k.
Building the initial guess                     ... o.k.
Number of trial vectors determined             ...     10


                       ****Iteration    0****
   Time for iteration     :  TOTAL=24.0 TRAFO=0.1 RIJ=3.6 COSX=9.3 XC=1.3
   Size of expansion space: 3
   Lowest Energy          :     0.117518835058
   Maximum Energy change  :     0.117518835058 (vector 0)
   Maximum residual norm  :     0.017931659848

                       ****Iteration    1****
   Time for iteration     :  TOTAL=18.6 TRAFO=0.0 RIJ=2.6 COSX=7.6 XC=0.5
   Size of expansion space: 4
   Lowest Energy          :     0.101168419367
   Maximum Energy change  :     0.016350415690 (vector 0)
   Maximum residual norm  :     0.000595491971

                       ****Iteration    2****
   Time for iteration     :  TOTAL=18.4 TRAFO=0.0 RIJ=2.7 COSX=7.4 XC=0.5
   Size of expansion space: 5
   Lowest Energy          :     0.100546450828
   Maximum Energy change  :     0.000621968539 (vector 0)
   Maximum residual norm  :     0.000058503154

                       ****Iteration    3****
   Time for iteration     :  TOTAL=18.3 TRAFO=0.0 RIJ=2.5 COSX=7.5 XC=0.5
   Size of expansion space: 6
   Lowest Energy          :     0.100452471745
   Maximum Energy change  :     0.000093979083 (vector 0)
   Maximum residual norm  :     0.000007079875

                       ****Iteration    4****
   Time for iteration     :  TOTAL=18.9 TRAFO=0.0 RIJ=2.7 COSX=7.9 XC=0.5
   Size of expansion space: 7
   Lowest Energy          :     0.100444854757
   Maximum Energy change  :     0.000007616988 (vector 0)
   Maximum residual norm  :     0.000000620828

                       ****Iteration    5****
   Time for iteration     :  TOTAL=18.4 TRAFO=0.0 RIJ=2.5 COSX=7.5 XC=0.5
   Size of expansion space: 8
   Lowest Energy          :     0.100444228448
   Maximum Energy change  :     0.000000626309 (vector 0)
   Maximum residual norm  :     0.000000073471

      *** CONVERGENCE OF RESIDUAL NORM REACHED ***

Storing the converged CI vectors               ... NMU-1.cis1

                 *** DAVIDSON DONE ***

Total time for solving the CIS problem:   117.940sec

------------------------------------
TD-DFT/TDA EXCITED STATES (SINGLETS)
------------------------------------

the weight of the individual excitations are printed if larger than 1.0e-02

STATE  1:  E=   0.100444 au      2.733 eV    22045.0 cm**-1 <S**2> =   0.000000 Mult 1
    83a ->  84a  :     0.970350 (c=  0.98506355)


-----------------------------
TD-DFT/TDA-EXCITATION SPECTRA
-----------------------------

Center of mass = ( -2.6981, -5.0961,  0.1059)
Generating CIS transition densities           ... done

----------------------------------------------------------------------------------------------------
                     ABSORPTION SPECTRUM VIA TRANSITION ELECTRIC DIPOLE MOMENTS    
----------------------------------------------------------------------------------------------------
     Transition      Energy     Energy  Wavelength fosc(D2)      D2        DX        DY        DZ   
                      (eV)      (cm-1)    (nm)                 (au**2)    (au)      (au)      (au)  
----------------------------------------------------------------------------------------------------
  0-1A  ->  1-1A    2.733226   22045.0   453.6   1.398031277  20.87772  -4.31516   1.50123  -0.05875

----------------------------------------------------------------------------------------------------
                     ABSORPTION SPECTRUM VIA TRANSITION VELOCITY DIPOLE MOMENTS    
----------------------------------------------------------------------------------------------------
     Transition      Energy     Energy  Wavelength fosc(P2)      P2        PX        PY        PZ   
                      (eV)      (cm-1)    (nm)                 (au**2)    (au)      (au)      (au)  
----------------------------------------------------------------------------------------------------
  0-1A  ->  1-1A    2.733226   22045.0   453.6   0.738633527   0.11129   0.30482  -0.13539  -0.00645

------------------------------------------------------------------------------------------
                     CD SPECTRUM VIA TRANSITION ELECTRIC DIPOLE MOMENTS    
------------------------------------------------------------------------------------------
     Transition      Energy     Energy  Wavelength    R        MX        MY        MZ   
                      (eV)      (cm-1)    (nm)   (1e40*cgs)   (au)      (au)      (au)  
------------------------------------------------------------------------------------------
  0-1A  ->  1-1A    2.733226   22045.0   453.6  -34.65662  -0.04526  -0.07080   0.26435

------------------------------------------------------------------------------------------
                     CD SPECTRUM VIA TRANSITION VELOCITY DIPOLE MOMENTS    
------------------------------------------------------------------------------------------
     Transition      Energy     Energy  Wavelength    R        MX        MY        MZ   
                      (eV)      (cm-1)    (nm)   (1e40*cgs)   (au)      (au)      (au)  
------------------------------------------------------------------------------------------
  0-1A  ->  1-1A    2.733226   22045.0   453.6  -27.77080  -0.04526  -0.07080   0.26435

Total run time:      120.925 sec

           *** ORCA-CIS/TD-DFT FINISHED WITHOUT ERROR ***
-----------------------
CIS/TD-DFT TOTAL ENERGY
-----------------------

    E(SCF)  =  -1032.697542497 Eh
    DE(CIS) =      0.100444228 Eh (Root  1)
    ----------------------------- ---------
    E(tot)  =  -1032.597098269 Eh


------------------------
TD-DFT GRADIENT XC SETUP
------------------------

Building densities                     ... done
Calculating rho(r) on the grid         ... done
Building xc-kernel on the grid         ... done
Building xc 3rd derivative on the grid ... done
                *** TD-DFT GRADIENT CALCULATION INITIALIZED ***

--------------------------
TD-DFT/TDA RELAXED DENSITY
--------------------------

Reference wavefunction             ... RHF
State of interest                  ... 1
Basis dimension                    ... 684
DFT-XC contribution needed         ... YES
RI-approximation                   ... YES
Do Coulomb                         ... YES
Do Exchange                        ... YES
Need Hartree-Fock Exchange         ... YES
facj, facx                         ...  2.000, -0.200
Conventional                       ... NO
Range separation                   ... NO
Triplet state                      ... NO
Spin Flip                          ... NO
CIS-vectors being read from        ... NMU-1.cis
 => Number of Vectors found: 1
 => Orbital Window: 24...83 -> 84...683

Reading the CIS file                     ... done
Norm of the CI vector                    ... 1.000000000
Reading the CPCM file                    ... done
Making the CIS (pseudo)densities         ... done
Making operators G(D) and Q(T)           ... (SHARK-ok)done
Transforming the Fock operators          ... done
Making the frozen-core relaxed density   ... done
Constructing the G(H) operator           ... (SHARK-ok)done
Transforming the G(H) operator           ... done
Calculating the CIS Lagrangian           ... done
Solving the Z-vector equations           ... 

Using XC Grid                  ... (NMU-1.grid_cpscf.tmp) 
Recalculating density on grid  ... (NMU-1.grho_cpscf0.tmp) done
Calculating the xc-kernel      ... (NMU-1.fxc_cpscf0.tmp) done

-------------------
SHARK CP-SCF DRIVER
-------------------

Dimension of the orbital basis          ...    684
Dimension of the CPSCF-problem          ...  50400
Number of operators                     ...      1
Max. number of iterations               ...    128
Convergence Tolerance                   ... 1.0e-04
Number of perturbations                 ...      1
Perturbation type                       ... REAL

----------------------------
POPLE LINEAR EQUATION SOLVER
----------------------------

  ITERATION   0:   ||err||_max =   1.8986e+00 (  18.1 sec)
  ITERATION   1:   ||err||_max =   1.0863e-01 (  18.2 sec)
  ITERATION   2:   ||err||_max =   2.2211e-02 (  18.4 sec)
  ITERATION   3:   ||err||_max =   8.1857e-03 (  18.7 sec)
  ITERATION   4:   ||err||_max =   3.6322e-03 (  19.0 sec)
  ITERATION   5:   ||err||_max =   1.3504e-03 (  18.3 sec)
  ITERATION   6:   ||err||_max =   3.6715e-04 (  18.9 sec)
  ITERATION   7:   ||err||_max =   1.2478e-04 (  18.3 sec)
  ITERATION   8:   ||err||_max =   4.9857e-05 (  21.4 sec)

Finalizing the relaxed density           ... done
Storing the relaxed density              ... done
Constructing the G(Z) operator           ... (SHARK-ok)done
Adding the CPCM contribution             ... done
Adding the XC terms                      ... done
Transforming the G(Z) operator           ... done
Making the W-matrix                      ... done
Finalizing the W-matrix                  ... done
Transforming the W-matrix                ... done
Nuc. rep. gradient        (SHARK) ... done (  0.0 sec)
HCore & Overlap gradient  (SHARK) ... done (  1.6 sec)
Split-RIJ-J gradient      (SHARK) ... done ( 11.1 sec)
COSX-gradient                     ... done ( 96.5 sec)
CPCM gradient                     ... done ( 10.6 sec)
Dispersion correction             ... done (  0.0 sec)

-------------------
DISPERSION GRADIENT
-------------------

   1   C   :   -0.000805119    0.000045812   -0.000048364
   2   C   :   -0.000634695   -0.000222931   -0.000354716
   3   C   :   -0.000457716   -0.000593891   -0.000232798
   4   H   :   -0.000259246   -0.000009494   -0.000421875
   5   H   :   -0.000324372   -0.000100030   -0.000156362
   6   C   :   -0.000136908   -0.000711811   -0.000194104
   7   H   :   -0.000138580   -0.000334744   -0.000193296
   8   H   :   -0.000247846   -0.000396944    0.000110159
   9   C   :   -0.000012290   -0.000088136    0.000034087
  10   N   :   -0.000560022    0.000360994    0.000105635
  11   H   :   -0.000439158   -0.000021074    0.000227937
  12   H   :   -0.000398393    0.000159800   -0.000059223
  13   C   :   -0.000336875    0.000694514    0.000249397
  14   C   :    0.000046388    0.000772567    0.000053397
  15   H   :   -0.000223950    0.000256880    0.000368763
  16   H   :   -0.000266980    0.000333393    0.000038115
  17   C   :    0.000275153    0.000706732    0.000242309
  18   H   :    0.000013625    0.000374249    0.000045514
  19   H   :    0.000045730    0.000435533   -0.000237354
  20   C   :    0.000314272    0.000364595    0.000189561
  21   H   :    0.000172393    0.000266713    0.000367642
  22   H   :    0.000221687    0.000358498    0.000021932
  23   C   :    0.000001182   -0.000737159   -0.000207298
  24   C   :    0.000301237    0.000033564    0.000082536
  25   C   :    0.000002865   -0.000431977   -0.000107306
  26   O   :    0.000391317    0.000326738    0.000166948
  27   C   :    0.000382161    0.000546992    0.000221445
  28   C   :   -0.000099136   -0.000456270   -0.000118625
  29   C   :    0.000050427    0.000101528    0.000053551
  30   O   :    0.000353836    0.000629553    0.000220551
  31   C   :    0.000256710   -0.000187126   -0.000036377
  32   C   :    0.000602519    0.000073584    0.000318302
  33   C   :    0.000104856   -0.000564637   -0.000390638
  34   N   :    0.000209043   -0.000532598   -0.000314312
  35   C   :    0.000469095   -0.000363726   -0.000077150
  36   C   :    0.000605670   -0.000108324    0.000172621
  37   H   :   -0.000096147   -0.000286089   -0.000270258
  38   H   :    0.000289671    0.000046958    0.000146597
  39   H   :    0.000237843   -0.000201528   -0.000049903
  40   H   :    0.000230376    0.000201129    0.000250438
  41   H   :   -0.000031604   -0.000395662   -0.000129289
  42   H   :   -0.000109017   -0.000346174   -0.000088189

Difference to translation invariance:
           :   -0.0000000000    0.0000000000    0.0000000000

Difference to rotation invariance:
           :    0.0000000000   -0.0000000000    0.0000000000

Norm of the Dispersion gradient    ...    0.0036147327
RMS gradient                       ...    0.0003220260
MAX gradient                       ...    0.0008051191

                 ---------------------------
                 EXCITED STATE GRADIENT DONE
                 ---------------------------

------------------
CARTESIAN GRADIENT
------------------

   1   C   :    0.000034590   -0.000053773    0.000035432
   2   C   :    0.000147240    0.000034904    0.000054007
   3   C   :    0.000019633    0.000055136    0.000005182
   4   H   :   -0.000018032   -0.000002172   -0.000007671
   5   H   :   -0.000024842    0.000001345    0.000004726
   6   C   :   -0.000030964    0.000070907    0.000006952
   7   H   :    0.000016581    0.000025358   -0.000032319
   8   H   :    0.000025932    0.000010175    0.000020422
   9   C   :   -0.000081514    0.000041776   -0.000034356
  10   N   :    0.000147178   -0.000078758    0.000022459
  11   H   :    0.000018160   -0.000001782    0.000020449
  12   H   :    0.000014220   -0.000001103   -0.000024272
  13   C   :    0.000118372   -0.000027595   -0.000044238
  14   C   :   -0.000096750   -0.000089072   -0.000040105
  15   H   :   -0.000053775   -0.000023950    0.000016403
  16   H   :   -0.000001712   -0.000001303   -0.000032987
  17   C   :   -0.000028319   -0.000126195   -0.000031593
  18   H   :   -0.000006200   -0.000009760    0.000057625
  19   H   :    0.000025006   -0.000026241    0.000010109
  20   C   :    0.000043473   -0.000002446    0.000015412
  21   H   :   -0.000015415   -0.000016404    0.000016981
  22   H   :   -0.000013591   -0.000002693    0.000011768
  23   C   :    0.000024071    0.000033589    0.000035953
  24   C   :   -0.000038376    0.000043616    0.000037848
  25   C   :    0.000042365   -0.000056745   -0.000008362
  26   O   :   -0.000081579   -0.000040791    0.000054769
  27   C   :    0.000118895    0.000086758   -0.000340006
  28   C   :   -0.000087711    0.000069912    0.000002010
  29   C   :    0.000039384   -0.000075062    0.000035041
  30   O   :   -0.000117664   -0.000045650    0.000170265
  31   C   :   -0.000090423    0.000056113    0.000116579
  32   C   :   -0.000014239    0.000024650   -0.000030026
  33   C   :   -0.000046219   -0.000026595   -0.000012457
  34   N   :   -0.000011533    0.000022683    0.000007990
  35   C   :   -0.000008058    0.000028150    0.000030432
  36   C   :   -0.000019386   -0.000024328   -0.000023852
  37   H   :    0.000092116   -0.000000638    0.000010994
  38   H   :   -0.000020474    0.000020047    0.000017648
  39   H   :   -0.000009920    0.000003846   -0.000004550
  40   H   :    0.000014679   -0.000034397    0.000002223
  41   H   :   -0.000005724   -0.000000708    0.000001161
  42   H   :   -0.000048938    0.000065704    0.000016255

Difference to translation invariance:
           :   -0.0000294608   -0.0000734927    0.0001702972

Difference to rotation invariance:
           :   -0.0004271162   -0.0003494372    0.0009912782

Norm of the Cartesian gradient     ...    0.0006557202
RMS gradient                       ...    0.0000584162
MAX gradient                       ...    0.0003400065

------------------------------------------------------------------------------
                  RELAXED CIS/TDA DENSITY POPULATION ANALYSIS
                                   IROOT 1
------------------------------------------------------------------------------
------------------------------------------------------------------------------
                           ORCA POPULATION ANALYSIS
------------------------------------------------------------------------------
Input electron density              ... NMU-1.cispre.singlet.iroot1
BaseName (.gbw .S,...)              ... NMU-1

-------
TIMINGS
-------

Total TD-DFT gradient time  ....      496.717 sec

Fock matrix formation       ....     136.670 sec  ( 27.5%)
  Coulomb formation         ....     126.722 sec  ( 92.7% of F)
  XC integration            ....       9.948 sec  (  7.3% of F)
Z-vector equation           ....     170.025 sec  ( 34.2%)
Densities                   ....       0.000 sec  (  0.0%)
One electron gradient       ....       1.640 sec  (  0.3%)
Two electron gradient       ....       0.000 sec  (  0.0%)
RI-J Coulomb gradient       ....      11.096 sec  (  2.2%)
COSX gradient               ....      27.701 sec  (  5.6%)
XC gradient                 ....      96.547 sec  ( 19.4%)
CPCM gradient               ....      10.586 sec  (  2.1%)
   A-Matrix (El+Nuc)        ....       0.247 sec  (  0.0%)
   Potential                ....      10.339 sec  (  2.1%)

Maximum memory used throughout the entire CIS-calculation: 348.7 MB
=> NOW LEAVING ORCA_CIS


-------------------------------------------------------------------------------
                          DFT DISPERSION CORRECTION                            
                                                                               
                              DFTD3 V3.1  Rev 1                                
                          USING Becke-Johnson damping                          
-------------------------------------------------------------------------------
-------------------------   ----------------
Dispersion correction           -0.098178903
-------------------------   ----------------


-------------------------   --------------------
FINAL SINGLE POINT ENERGY     -1032.695277171673
-------------------------   --------------------

------------------------------------------------------------------------------
                         ORCA GEOMETRY RELAXATION STEP
------------------------------------------------------------------------------

Reading the OPT-File                    .... done
Getting information on internals        .... done
Copying old internal coords+grads       .... done
Making the new internal coordinates     .... (2022 redundants) done
Validating the new internal coordinates .... (2022 redundants) done
Calculating the B-matrix                .... done
Calculating the G,G- and P matrices     .... done
Transforming gradient to internals      .... done
Projecting the internal gradient        .... done
Number of atoms                         ....  42
Number of internal coordinates          .... 241
Current Energy                          .... -1032.695277172 Eh
Current gradient norm                   ....     0.000655720 Eh/bohr
Maximum allowed component of the step   ....  0.300
Current trust radius                    ....  0.200
Updating the Hessian (BFGS)             .... done
Forming the augmented Hessian           .... done
Diagonalizing the augmented Hessian     .... done
Last element of RFO vector              ....  0.999879028
Lowest eigenvalues of augmented Hessian:
 -0.000003490  0.006385096  0.015192968  0.016690118  0.017791171
Length of the computed step             ....  0.015555941
The final length of the internal step   ....  0.015555941
Converting the step to Cartesian space:
 Initial RMS(Int)=    0.0010020462
Transforming coordinates:
 Iter   0:  RMS(Cart)=    0.0025121962 RMS(Int)=    0.0010018535
done
Storing new coordinates                 .... done
The predicted energy change is          ....    -0.000001745
Previously predicted energy change      ....    -0.000002704
Actually observed energy change         ....    -0.000003099
Ratio of predicted to observed change   ....     1.145940963
New trust radius                        ....     0.300000000

                                .--------------------.
          ----------------------|Geometry convergence|-------------------------
          Item                value                   Tolerance       Converged
          ---------------------------------------------------------------------
          Energy change      -0.0000030990            0.0000050000      YES
          RMS gradient        0.0000468243            0.0001000000      YES
          MAX gradient        0.0002284190            0.0003000000      YES
          RMS step            0.0010020462            0.0020000000      YES
          MAX step            0.0044144403            0.0040000000      NO
          ........................................................
          Max(Bonds)      0.0002      Max(Angles)    0.03
          Max(Dihed)        0.25      Max(Improp)    0.00
          ---------------------------------------------------------------------

The optimization has not yet converged - more geometry cycles are needed


    ---------------------------------------------------------------------------
                         Redundant Internal Coordinates
                            (Angstroem and degrees)

        Definition                    Value    dE/dq     Step     New-Value
    ----------------------------------------------------------------------------
     1. B(C   1,C   0)                1.5173 -0.000105  0.0001    1.5174   
     2. B(C   2,C   1)                1.5218 -0.000105  0.0001    1.5219   
     3. B(H   3,C   1)                1.0931 -0.000001  0.0000    1.0931   
     4. B(H   4,C   1)                1.0903  0.000022 -0.0000    1.0903   
     5. B(C   5,C   2)                1.5041 -0.000145  0.0001    1.5043   
     6. B(H   6,C   2)                1.0909  0.000003 -0.0000    1.0909   
     7. B(H   7,C   2)                1.0961  0.000004  0.0000    1.0961   
     8. B(C   8,C   5)                1.4283 -0.000137  0.0001    1.4283   
     9. B(N   9,C   8)                1.3663 -0.000228  0.0002    1.3664   
    10. B(N   9,C   0)                1.4566 -0.000115  0.0001    1.4567   
    11. B(H  10,C   0)                1.1004  0.000010  0.0000    1.1004   
    12. B(H  11,C   0)                1.0896  0.000000 -0.0000    1.0896   
    13. B(C  12,N   9)                1.4557 -0.000143  0.0001    1.4558   
    14. B(C  13,C  12)                1.5166 -0.000138  0.0002    1.5168   
    15. B(H  14,C  12)                1.1005  0.000017  0.0000    1.1005   
    16. B(H  15,C  12)                1.0890  0.000014 -0.0000    1.0889   
    17. B(C  16,C  13)                1.5216 -0.000065  0.0001    1.5217   
    18. B(H  17,C  13)                1.0902  0.000016 -0.0000    1.0902   
    19. B(H  18,C  13)                1.0928 -0.000003  0.0000    1.0928   
    20. B(C  19,C  16)                1.5025 -0.000167  0.0002    1.5028   
    21. B(C  19,C   8)                1.4268 -0.000127  0.0000    1.4268   
    22. B(H  20,C  16)                1.0962  0.000007  0.0000    1.0962   
    23. B(H  21,C  16)                1.0894 -0.000009 -0.0000    1.0894   
    24. B(C  22,C   5)                1.3748 -0.000097  0.0000    1.3748   
    25. B(C  23,C  19)                1.3824 -0.000212  0.0002    1.3825   
    26. B(C  24,C  23)                1.4048 -0.000082  0.0000    1.4048   
    27. B(C  24,C  22)                1.4129 -0.000115  0.0001    1.4130   
    28. B(O  25,C  23)                1.3726 -0.000128  0.0000    1.3727   
    29. B(C  26,O  25)                1.3944 -0.000057 -0.0001    1.3943   
    30. B(C  27,C  24)                1.4175 -0.000206  0.0001    1.4176   
    31. B(C  28,C  26)                1.4461 -0.000020 -0.0001    1.4460   
    32. B(C  28,C  27)                1.4097 -0.000031 -0.0000    1.4097   
    33. B(O  29,C  26)                1.2242 -0.000075  0.0001    1.2243   
    34. B(C  30,C  28)                1.4451 -0.000136  0.0001    1.4451   
    35. B(C  31,C  30)                1.4139 -0.000046 -0.0000    1.4139   
    36. B(C  32,C  30)                1.4220  0.000022 -0.0001    1.4219   
    37. B(N  33,C  32)                1.3276 -0.000039  0.0000    1.3276   
    38. B(C  34,N  33)                1.3401 -0.000027  0.0000    1.3402   
    39. B(C  35,C  34)                1.3945 -0.000039  0.0000    1.3945   
    40. B(C  35,C  31)                1.3797 -0.000044  0.0000    1.3797   
    41. B(H  36,C  32)                1.0825 -0.000075  0.0001    1.0826   
    42. B(H  37,C  35)                1.0824 -0.000009  0.0000    1.0825   
    43. B(H  38,C  34)                1.0841 -0.000009  0.0000    1.0842   
    44. B(H  39,C  31)                1.0773 -0.000031  0.0001    1.0774   
    45. B(H  40,C  22)                1.0835 -0.000001 -0.0000    1.0835   
    46. B(H  41,C  27)                1.0784 -0.000064  0.0001    1.0785   
    47. A(C   1,C   0,H  10)          109.96  0.000036   -0.02    109.94   
    48. A(C   1,C   0,N   9)          111.70 -0.000025   -0.01    111.69   
    49. A(N   9,C   0,H  11)          107.34  0.000006    0.01    107.34   
    50. A(H  10,C   0,H  11)          107.33  0.000012    0.00    107.34   
    51. A(C   1,C   0,H  11)          111.37 -0.000015    0.02    111.39   
    52. A(N   9,C   0,H  10)          109.00 -0.000014    0.00    109.00   
    53. A(C   2,C   1,H   3)          110.31  0.000011   -0.02    110.29   
    54. A(C   0,C   1,H   3)          109.35  0.000003   -0.02    109.33   
    55. A(C   2,C   1,H   4)          111.03  0.000011    0.02    111.04   
    56. A(H   3,C   1,H   4)          107.84 -0.000006    0.02    107.86   
    57. A(C   0,C   1,H   4)          108.99 -0.000009    0.03    109.01   
    58. A(C   0,C   1,C   2)          109.29 -0.000009   -0.02    109.26   
    59. A(C   5,C   2,H   7)          109.26 -0.000048    0.01    109.27   
    60. A(C   1,C   2,C   5)          110.88 -0.000023   -0.01    110.86   
    61. A(C   5,C   2,H   6)          109.55  0.000008    0.00    109.55   
    62. A(C   1,C   2,H   7)          109.09  0.000028   -0.01    109.08   
    63. A(C   1,C   2,H   6)          111.22  0.000001    0.01    111.23   
    64. A(H   6,C   2,H   7)          106.74  0.000035    0.00    106.74   
    65. A(C   2,C   5,C   8)          120.21  0.000014   -0.01    120.20   
    66. A(C   2,C   5,C  22)          120.71 -0.000026    0.01    120.72   
    67. A(C   8,C   5,C  22)          119.09  0.000012    0.00    119.09   
    68. A(C   5,C   8,N   9)          120.37  0.000007    0.00    120.37   
    69. A(N   9,C   8,C  19)          119.75 -0.000010   -0.00    119.75   
    70. A(C   5,C   8,C  19)          119.88  0.000002   -0.00    119.87   
    71. A(C   0,N   9,C   8)          121.33  0.000022   -0.00    121.33   
    72. A(C   8,N   9,C  12)          121.12  0.000044   -0.03    121.08   
    73. A(C   0,N   9,C  12)          116.37 -0.000066    0.03    116.41   
    74. A(H  14,C  12,H  15)          107.47  0.000003    0.01    107.48   
    75. A(C  13,C  12,H  15)          111.34 -0.000007    0.02    111.36   
    76. A(N   9,C  12,H  15)          107.47  0.000005    0.01    107.48   
    77. A(C  13,C  12,H  14)          110.09  0.000037   -0.02    110.07   
    78. A(N   9,C  12,H  14)          109.13 -0.000018    0.00    109.13   
    79. A(N   9,C  12,C  13)          111.22 -0.000020   -0.03    111.19   
    80. A(C  12,C  13,H  17)          109.21 -0.000015    0.03    109.24   
    81. A(C  12,C  13,C  16)          109.78 -0.000011   -0.02    109.76   
    82. A(H  17,C  13,H  18)          107.84  0.000030    0.01    107.85   
    83. A(C  16,C  13,H  18)          110.20 -0.000042   -0.00    110.19   
    84. A(C  12,C  13,H  18)          109.15  0.000034   -0.03    109.12   
    85. A(C  16,C  13,H  17)          110.62  0.000005    0.02    110.64   
    86. A(H  20,C  16,H  21)          106.32  0.000006    0.01    106.32   
    87. A(C  19,C  16,H  21)          109.67  0.000006   -0.01    109.66   
    88. A(C  13,C  16,H  21)          110.88 -0.000002    0.02    110.90   
    89. A(C  19,C  16,H  20)          108.99  0.000006   -0.01    108.98   
    90. A(C  13,C  16,C  19)          111.20 -0.000033    0.00    111.20   
    91. A(C  13,C  16,H  20)          109.64  0.000019   -0.01    109.64   
    92. A(C  16,C  19,C  23)          120.59 -0.000028   -0.01    120.58   
    93. A(C   8,C  19,C  23)          118.14  0.000008    0.00    118.14   
    94. A(C   8,C  19,C  16)          121.27  0.000020    0.01    121.28   
    95. A(C   5,C  22,C  24)          122.56 -0.000036    0.00    122.56   
    96. A(C  24,C  22,H  40)          118.34  0.000025   -0.00    118.34   
    97. A(C   5,C  22,H  40)          119.10  0.000011    0.00    119.10   
    98. A(C  24,C  23,O  25)          120.16  0.000043    0.01    120.17   
    99. A(C  19,C  23,O  25)          116.43 -0.000051    0.00    116.43   
   100. A(C  19,C  23,C  24)          123.41  0.000008   -0.01    123.40   
   101. A(C  23,C  24,C  27)          119.02  0.000010    0.00    119.02   
   102. A(C  22,C  24,C  27)          124.06 -0.000015   -0.00    124.06   
   103. A(C  22,C  24,C  23)          116.92  0.000006    0.00    116.92   
   104. A(C  23,O  25,C  26)          122.92 -0.000026   -0.01    122.91   
   105. A(C  28,C  26,O  29)          128.02  0.000082   -0.03    127.99   
   106. A(O  25,C  26,O  29)          113.90 -0.000061    0.02    113.92   
   107. A(O  25,C  26,C  28)          118.07 -0.000019    0.00    118.08   
   108. A(C  24,C  27,C  28)          120.94  0.000002   -0.02    120.92   
   109. A(C  28,C  27,H  41)          120.79  0.000055   -0.00    120.78   
   110. A(C  24,C  27,H  41)          118.19 -0.000059    0.02    118.21   
   111. A(C  27,C  28,C  30)          121.34  0.000045    0.00    121.34   
   112. A(C  26,C  28,C  30)          119.79 -0.000035   -0.02    119.77   
   113. A(C  26,C  28,C  27)          118.86 -0.000010    0.01    118.87   
   114. A(C  31,C  30,C  32)          115.35 -0.000013    0.01    115.36   
   115. A(C  28,C  30,C  32)          119.83  0.000039    0.00    119.84   
   116. A(C  28,C  30,C  31)          124.81 -0.000026   -0.02    124.79   
   117. A(C  35,C  31,H  39)          120.31 -0.000025    0.02    120.33   
   118. A(C  30,C  31,H  39)          119.79  0.000018   -0.02    119.78   
   119. A(C  30,C  31,C  35)          119.88  0.000008   -0.01    119.88   
   120. A(N  33,C  32,H  36)          115.46 -0.000043    0.02    115.48   
   121. A(C  30,C  32,H  36)          119.72  0.000046   -0.01    119.70   
   122. A(C  30,C  32,N  33)          124.79 -0.000004   -0.01    124.78   
   123. A(C  32,N  33,C  34)          118.17  0.000001   -0.00    118.17   
   124. A(C  35,C  34,H  38)          120.95  0.000014   -0.01    120.95   
   125. A(N  33,C  34,H  38)          116.78 -0.000012    0.00    116.78   
   126. A(N  33,C  34,C  35)          122.27 -0.000002    0.01    122.28   
   127. A(C  34,C  35,H  37)          119.99  0.000023   -0.01    119.98   
   128. A(C  31,C  35,H  37)          120.47 -0.000033    0.01    120.48   
   129. A(C  31,C  35,C  34)          119.53  0.000010   -0.00    119.53   
   130. D(C   2,C   1,C   0,N   9)     56.34  0.000008    0.05     56.39   
   131. D(C   2,C   1,C   0,H  10)    -64.81  0.000017    0.07    -64.74   
   132. D(C   2,C   1,C   0,H  11)    176.35 -0.000013    0.06    176.41   
   133. D(H   3,C   1,C   0,N   9)    -64.50 -0.000002    0.10    -64.40   
   134. D(H   3,C   1,C   0,H  11)     55.50 -0.000022    0.12     55.62   
   135. D(H   3,C   1,C   0,H  10)    174.35  0.000007    0.12    174.47   
   136. D(C   5,C   2,C   1,C   0)    -52.25 -0.000000   -0.07    -52.33   
   137. D(H   6,C   2,C   1,C   0)   -174.41  0.000005   -0.08   -174.49   
   138. D(H   6,C   2,C   1,H   4)     65.34  0.000016   -0.10     65.23   
   139. D(H   6,C   2,C   1,H   3)    -54.16  0.000010   -0.13    -54.29   
   140. D(C   5,C   2,C   1,H   3)     68.00  0.000005   -0.13     67.87   
   141. D(C   5,C   2,C   1,H   4)   -172.51  0.000011   -0.10   -172.61   
   142. D(C   8,C   5,C   2,C   1)     26.09  0.000000    0.03     26.13   
   143. D(C   8,C   5,C   2,H   6)    149.21 -0.000008    0.04    149.26   
   144. D(C  22,C   5,C   2,C   1)   -154.33 -0.000007    0.06   -154.27   
   145. D(C   8,C   5,C   2,H   7)    -94.18  0.000010    0.05    -94.13   
   146. D(C  22,C   5,C   2,H   6)    -31.20 -0.000016    0.07    -31.14   
   147. D(C  19,C   8,C   5,C  22)     -0.70 -0.000007    0.04     -0.66   
   148. D(C  19,C   8,C   5,C   2)    178.89 -0.000015    0.07    178.96   
   149. D(N   9,C   8,C   5,C  22)    179.03  0.000004    0.01    179.04   
   150. D(N   9,C   8,C   5,C   2)     -1.38 -0.000004    0.03     -1.35   
   151. D(C  12,N   9,C   8,C  19)     -8.17  0.000018   -0.11     -8.28   
   152. D(C  12,N   9,C   8,C   5)    172.10  0.000007   -0.08    172.02   
   153. D(C   0,N   9,C   8,C  19)   -175.31  0.000026   -0.09   -175.40   
   154. D(C   0,N   9,C   8,C   5)      4.96  0.000016   -0.06      4.90   
   155. D(C  12,N   9,C   0,H  10)    -79.22 -0.000005    0.01    -79.21   
   156. D(C  12,N   9,C   0,C   1)    159.08 -0.000025    0.04    159.12   
   157. D(C   8,N   9,C   0,H  11)   -155.55  0.000010   -0.00   -155.56   
   158. D(C   8,N   9,C   0,H  10)     88.50 -0.000000   -0.01     88.48   
   159. D(C   8,N   9,C   0,C   1)    -33.21 -0.000020    0.01    -33.19   
   160. D(C  13,C  12,N   9,C   0)   -154.89 -0.000010    0.16   -154.73   
   161. D(H  15,C  12,N   9,C   0)    -32.78 -0.000028    0.17    -32.61   
   162. D(H  14,C  12,N   9,C   8)    -84.28 -0.000033    0.22    -84.06   
   163. D(H  14,C  12,N   9,C   0)     83.46 -0.000031    0.20     83.66   
   164. D(C  13,C  12,N   9,C   8)     37.37 -0.000011    0.18     37.55   
   165. D(H  17,C  13,C  12,H  15)     61.54  0.000028   -0.15     61.39   
   166. D(H  17,C  13,C  12,H  14)    -57.55  0.000005   -0.17    -57.72   
   167. D(H  17,C  13,C  12,N   9)   -178.63  0.000016   -0.14   -178.78   
   168. D(C  16,C  13,C  12,H  15)   -177.02  0.000018   -0.12   -177.14   
   169. D(C  16,C  13,C  12,H  14)     63.90 -0.000005   -0.14     63.76   
   170. D(C  16,C  13,C  12,N   9)    -57.19  0.000006   -0.11    -57.30   
   171. D(H  20,C  16,C  13,H  17)     48.94 -0.000006    0.03     48.97   
   172. D(H  20,C  16,C  13,C  12)    -71.65  0.000017   -0.01    -71.65   
   173. D(C  19,C  16,C  13,H  18)    -71.30  0.000007    0.03    -71.27   
   174. D(C  19,C  16,C  13,H  17)    169.54 -0.000006    0.01    169.56   
   175. D(H  20,C  16,C  13,H  18)    168.10  0.000008    0.05    168.15   
   176. D(C  19,C  16,C  13,C  12)     48.95  0.000016   -0.02     48.93   
   177. D(C  23,C  19,C  16,H  20)    -80.26 -0.000008    0.07    -80.20   
   178. D(C   8,C  19,C  16,H  21)   -144.59  0.000002    0.08   -144.51   
   179. D(C   8,C  19,C  16,H  20)     99.40 -0.000012    0.08     99.48   
   180. D(C   8,C  19,C  16,C  13)    -21.59 -0.000018    0.10    -21.49   
   181. D(C  23,C  19,C   8,N   9)    179.65 -0.000002   -0.02    179.62   
   182. D(C  23,C  19,C   8,C   5)     -0.62  0.000009   -0.06     -0.68   
   183. D(C  23,C  19,C  16,C  13)    158.75 -0.000015    0.08    158.83   
   184. D(C  16,C  19,C   8,N   9)     -0.02  0.000002   -0.04     -0.06   
   185. D(C  16,C  19,C   8,C   5)    179.71  0.000013   -0.07    179.64   
   186. D(H  40,C  22,C   5,C   8)   -179.22 -0.000005    0.01   -179.21   
   187. D(H  40,C  22,C   5,C   2)      1.20  0.000002   -0.02      1.18   
   188. D(C  24,C  22,C   5,C   8)      1.22 -0.000002    0.00      1.22   
   189. D(C  24,C  22,C   5,C   2)   -178.37  0.000005   -0.02   -178.39   
   190. D(O  25,C  23,C  19,C   8)   -178.59 -0.000001    0.00   -178.58   
   191. D(C  24,C  23,C  19,C  16)   -178.81 -0.000006    0.04   -178.77   
   192. D(C  24,C  23,C  19,C   8)      1.52 -0.000003    0.03      1.55   
   193. D(O  25,C  23,C  19,C  16)      1.08 -0.000004    0.02      1.10   
   194. D(C  27,C  24,C  23,O  25)     -0.72  0.000008    0.02     -0.70   
   195. D(C  27,C  24,C  23,C  19)    179.17  0.000010   -0.00    179.16   
   196. D(C  22,C  24,C  23,O  25)    179.07 -0.000007    0.04    179.11   
   197. D(C  22,C  24,C  23,C  19)     -1.04 -0.000006    0.02     -1.02   
   198. D(C  27,C  24,C  22,H  40)     -0.17 -0.000006   -0.02     -0.18   
   199. D(C  27,C  24,C  22,C   5)    179.40 -0.000009   -0.01    179.39   
   200. D(C  23,C  24,C  22,H  40)   -179.95  0.000011   -0.04   -179.99   
   201. D(C  23,C  24,C  22,C   5)     -0.39  0.000008   -0.03     -0.42   
   202. D(C  26,O  25,C  23,C  24)      1.95  0.000018   -0.02      1.93   
   203. D(C  26,O  25,C  23,C  19)   -177.95  0.000017    0.01   -177.94   
   204. D(O  29,C  26,O  25,C  23)    177.26  0.000106   -0.22    177.04   
   205. D(C  28,C  26,O  25,C  23)     -1.85 -0.000051    0.02     -1.83   
   206. D(H  41,C  27,C  24,C  23)    176.23 -0.000026   -0.02    176.21   
   207. D(H  41,C  27,C  24,C  22)     -3.55 -0.000009   -0.04     -3.59   
   208. D(C  28,C  27,C  24,C  23)     -0.50 -0.000001   -0.03     -0.53   
   209. D(C  28,C  27,C  24,C  22)    179.72  0.000016   -0.05    179.67   
   210. D(C  30,C  28,C  27,H  41)      5.11 -0.000020    0.06      5.18   
   211. D(C  30,C  28,C  27,C  24)   -178.25 -0.000050    0.08   -178.17   
   212. D(C  26,C  28,C  27,H  41)   -176.08 -0.000003    0.03   -176.06   
   213. D(C  26,C  28,C  27,C  24)      0.56 -0.000033    0.04      0.60   
   214. D(C  30,C  28,C  26,O  29)      0.43 -0.000105    0.22      0.64   
   215. D(C  30,C  28,C  26,O  25)    179.40  0.000075   -0.07    179.32   
   216. D(C  27,C  28,C  26,O  29)   -178.40 -0.000123    0.25   -178.14   
   217. D(C  27,C  28,C  26,O  25)      0.57  0.000057   -0.03      0.54   
   218. D(C  32,C  30,C  28,C  27)     18.01  0.000010    0.10     18.11   
   219. D(C  32,C  30,C  28,C  26)   -160.78 -0.000008    0.13   -160.65   
   220. D(C  31,C  30,C  28,C  27)   -160.62 -0.000009    0.12   -160.50   
   221. D(C  31,C  30,C  28,C  26)     20.59 -0.000026    0.16     20.74   
   222. D(H  39,C  31,C  30,C  32)   -179.11 -0.000003   -0.00   -179.11   
   223. D(H  39,C  31,C  30,C  28)     -0.42  0.000015   -0.03     -0.45   
   224. D(C  35,C  31,C  30,C  32)     -0.09 -0.000005   -0.00     -0.09   
   225. D(C  35,C  31,C  30,C  28)    178.60  0.000013   -0.03    178.57   
   226. D(H  36,C  32,C  30,C  31)   -178.05  0.000019   -0.03   -178.08   
   227. D(H  36,C  32,C  30,C  28)      3.19  0.000003   -0.00      3.19   
   228. D(N  33,C  32,C  30,C  31)     -0.33  0.000004    0.01     -0.32   
   229. D(N  33,C  32,C  30,C  28)   -179.09 -0.000012    0.03   -179.06   
   230. D(C  34,N  33,C  32,H  36)    178.42 -0.000013    0.02    178.44   
   231. D(C  34,N  33,C  32,C  30)      0.61 -0.000000   -0.01      0.60   
   232. D(H  38,C  34,N  33,C  32)    179.42  0.000002    0.00    179.42   
   233. D(C  35,C  34,N  33,C  32)     -0.47 -0.000004    0.01     -0.47   
   234. D(H  37,C  35,C  34,H  38)     -0.41 -0.000003    0.00     -0.41   
   235. D(H  37,C  35,C  34,N  33)    179.48  0.000003   -0.00    179.48   
   236. D(C  31,C  35,C  34,H  38)   -179.81 -0.000004    0.01   -179.81   
   237. D(C  31,C  35,C  34,N  33)      0.08  0.000003    0.00      0.08   
   238. D(H  37,C  35,C  31,H  39)     -0.18 -0.000000    0.00     -0.18   
   239. D(H  37,C  35,C  31,C  30)   -179.20  0.000001    0.00   -179.19   
   240. D(C  34,C  35,C  31,H  39)    179.22  0.000000   -0.00    179.22   
   241. D(C  34,C  35,C  31,C  30)      0.20  0.000002   -0.00      0.20   
    ----------------------------------------------------------------------------

Geometry step timings:
Preparation and reading OPT file:      0.001 s ( 4.465 %)
Internal coordinates            :      0.000 s ( 0.114 %)
B/P matrices and projection     :      0.004 s (18.521 %)
Hessian update/contruction      :      0.009 s (44.624 %)
Making the step                 :      0.002 s (11.839 %)
Converting the step to Cartesian:      0.000 s ( 1.398 %)
Storing new data                :      0.001 s ( 5.324 %)
Checking convergence            :      0.000 s ( 0.064 %)
Final printing                  :      0.003 s (13.637 %)
Total time                      :      0.020 s

Time for energy+gradient        :    875.264 s
Time for complete geometry iter :    875.356 s

         *************************************************************
         *                GEOMETRY OPTIMIZATION CYCLE   5            *
         *************************************************************
---------------------------------
CARTESIAN COORDINATES (ANGSTROEM)
---------------------------------
  C     -6.553997   -1.483811   -0.138337
  C     -6.527512   -2.586682   -1.180236
  C     -5.560933   -3.674737   -0.735187
  H     -6.212981   -2.169730   -2.140467
  H     -7.535350   -2.984287   -1.302282
  C     -4.216845   -3.091048   -0.395233
  H     -5.443175   -4.437887   -1.505781
  H     -5.970359   -4.178402    0.148042
  C     -4.110838   -1.731823    0.030708
  N     -5.223860   -0.942791    0.106772
  H     -6.963336   -1.870482    0.807128
  H     -7.188679   -0.655726   -0.452355
  C     -5.164332    0.385645    0.699189
  C     -3.862485    1.082590    0.352741
  H     -5.267078    0.298440    1.791403
  H     -6.023604    0.945692    0.333435
  C     -2.686284    0.236148    0.817109
  H     -3.842145    2.063030    0.828979
  H     -3.814479    1.234341   -0.728384
  C     -2.835281   -1.191701    0.372845
  H     -2.621364    0.264217    1.911007
  H     -1.745732    0.639819    0.444097
  C     -3.077273   -3.855365   -0.481161
  C     -1.732622   -2.021741    0.291548
  C     -1.799952   -3.357048   -0.139700
  O     -0.527890   -1.474867    0.657350
  C      0.674933   -2.176655    0.587853
  C     -0.606869   -4.119947   -0.204305
  C      0.635346   -3.552977    0.146075
  O      1.655486   -1.513214    0.899831
  C      1.862121   -4.310236    0.046398
  C      3.063815   -3.991602    0.719731
  C      1.905224   -5.485140   -0.753374
  N      2.971288   -6.262655   -0.900135
  C      4.090966   -5.931976   -0.242083
  C      4.169539   -4.803887    0.573975
  H      1.033312   -5.777540   -1.324615
  H      5.090554   -4.576396    1.095211
  H      4.944735   -6.587719   -0.370489
  H      3.106311   -3.123820    1.356822
  H     -3.155759   -4.882690   -0.816588
  H     -0.681295   -5.160691   -0.477080

----------------------------
CARTESIAN COORDINATES (A.U.)
----------------------------
  NO LB      ZA    FRAG     MASS         X           Y           Z
   0 C     6.0000    0    12.011  -12.385260   -2.803997   -0.261418
   1 C     6.0000    0    12.011  -12.335209   -4.888121   -2.230323
   2 C     6.0000    0    12.011  -10.508640   -6.944246   -1.389303
   3 H     1.0000    0     1.008  -11.740832   -4.100196   -4.044897
   4 H     1.0000    0     1.008  -14.239747   -5.639485   -2.460957
   5 C     6.0000    0    12.011   -7.968682   -5.841234   -0.746883
   6 H     1.0000    0     1.008  -10.286110   -8.386391   -2.845514
   7 H     1.0000    0     1.008  -11.282343   -7.896035    0.279759
   8 C     6.0000    0    12.011   -7.768357   -3.272671    0.058030
   9 N     7.0000    0    14.007   -9.871665   -1.781616    0.201771
  10 H     1.0000    0     1.008  -13.158799   -3.534699    1.525251
  11 H     1.0000    0     1.008  -13.584635   -1.239142   -0.854826
  12 C     6.0000    0    12.011   -9.759172    0.728764    1.321275
  13 C     6.0000    0    12.011   -7.299040    2.045799    0.666584
  14 H     1.0000    0     1.008   -9.953335    0.563971    3.385260
  15 H     1.0000    0     1.008  -11.382962    1.787098    0.630100
  16 C     6.0000    0    12.011   -5.076341    0.446255    1.544111
  17 H     1.0000    0     1.008   -7.260603    3.898562    1.566543
  18 H     1.0000    0     1.008   -7.208320    2.332566   -1.376445
  19 C     6.0000    0    12.011   -5.357905   -2.251989    0.704575
  20 H     1.0000    0     1.008   -4.953660    0.499298    3.611280
  21 H     1.0000    0     1.008   -3.298956    1.209082    0.839223
  22 C     6.0000    0    12.011   -5.815203   -7.285583   -0.909262
  23 C     6.0000    0    12.011   -3.274181   -3.820536    0.550947
  24 C     6.0000    0    12.011   -3.401417   -6.343901   -0.263995
  25 O     8.0000    0    15.999   -0.997568   -2.787095    1.242212
  26 C     6.0000    0    12.011    1.275439   -4.113281    1.110882
  27 C     6.0000    0    12.011   -1.146817   -7.785572   -0.386080
  28 C     6.0000    0    12.011    1.200630   -6.714154    0.276043
  29 O     8.0000    0    15.999    3.128415   -2.859560    1.700433
  30 C     6.0000    0    12.011    3.518899   -8.145166    0.087679
  31 C     6.0000    0    12.011    5.789772   -7.543035    1.360094
  32 C     6.0000    0    12.011    3.600352  -10.365413   -1.423670
  33 N     7.0000    0    14.007    5.614920  -11.834703   -1.701009
  34 C     6.0000    0    12.011    7.730804  -11.209811   -0.457470
  35 C     6.0000    0    12.011    7.879287   -9.078031    1.084656
  36 H     1.0000    0     1.008    1.952677  -10.917969   -2.503159
  37 H     1.0000    0     1.008    9.619753   -8.648136    2.069649
  38 H     1.0000    0     1.008    9.344194  -12.448985   -0.700122
  39 H     1.0000    0     1.008    5.870077   -5.903164    2.564023
  40 H     1.0000    0     1.008   -5.963520   -9.226946   -1.543127
  41 H     1.0000    0     1.008   -1.287462   -9.752292   -0.901550

--------------------------------
INTERNAL COORDINATES (ANGSTROEM)
--------------------------------
 C      0   0   0     0.000000000000     0.00000000     0.00000000
 C      1   0   0     1.517425765947     0.00000000     0.00000000
 C      2   1   0     1.521908398014   109.26330700     0.00000000
 H      2   1   3     1.093079452255   109.32700009   239.20779790
 H      2   1   3     1.090285413124   109.01261304   121.51785787
 C      3   2   1     1.504272159171   110.86449636   307.67188902
 H      3   2   1     1.090907954691   111.23065091   185.51365120
 H      3   2   1     1.096084823028   109.08211172    68.03594887
 C      6   3   2     1.428340448871   120.19545737    26.12530070
 N      9   6   3     1.366446918955   120.37382492   358.65335953
 H      1   2   3     1.100443392543   109.93987968   295.26235335
 H      1   2   3     1.089565825749   111.38670332   176.41293459
 C     10   9   6     1.455761675954   121.08265994   172.02035518
 C     13  10   9     1.516760338248   111.18944507    37.54599780
 H     13  10   9     1.100496542730   109.13255329   275.93572747
 H     13  10   9     1.088934031312   107.47985570   159.66291146
 C     14  13  10     1.521693480288   109.76329780   302.69847529
 H     14  13  10     1.090173695699   109.23704004   181.22344689
 H     14  13  10     1.092777864526   109.11661601    63.54553073
 C      9   6   3     1.426826251220   119.87342726   178.95626185
 H     17  14  13     1.096182685436   109.63719076   288.34510863
 H     17  14  13     1.089368652644   110.90077463   171.23432411
 C      6   3   2     1.374840794789   120.71543449   205.73073083
 C     20   9   6     1.382545458836   118.14031862   359.32263996
 C     24  20   9     1.404832206724   123.40021687     1.54592026
 O     24  20   9     1.372683837733   116.43087756   181.41786835
 C     26  24  20     1.394317023138   122.90913950   182.05509170
 C     25  24  20     1.417616309434   119.02401888   179.16374204
 C     28  25  24     1.409723488257   120.92018744   359.46925492
 O     27  26  24     1.224322921863   113.91983077   177.03782362
 C     29  28  25     1.445113898632   121.34216856   181.82927864
 C     31  29  28     1.413850866211   124.79096252   199.50012551
 C     31  29  28     1.421932114760   119.83520257    18.10981063
 N     33  31  29     1.327614089903   124.77973946   180.94247856
 C     34  33  31     1.340171597733   118.17026574     0.59858168
 C     32  31  29     1.379737784887   119.87818708   178.57332956
 H     33  31  29     1.082610289818   119.70486503     3.18513727
 H     36  32  31     1.082454416389   120.48297806   180.80793573
 H     35  34  33     1.084162535254   116.77789268   179.42139915
 H     32  31  29     1.077375332010   119.77974178   359.55109473
 H     23   6   3     1.083544097470   119.10393980     1.17793827
 H     28  25  24     1.078467727002   118.21479628   176.20637995

---------------------------
INTERNAL COORDINATES (A.U.)
---------------------------
 C      0   0   0     0.000000000000     0.00000000     0.00000000
 C      1   0   0     2.867519126196     0.00000000     0.00000000
 C      2   1   0     2.875990073161   109.26330700     0.00000000
 H      2   1   3     2.065620807379   109.32700009   239.20779790
 H      2   1   3     2.060340838614   109.01261304   121.51785787
 C      3   2   1     2.842662411715   110.86449636   307.67188902
 H      3   2   1     2.061517271681   111.23065091   185.51365120
 H      3   2   1     2.071300135071   109.08211172    68.03594887
 C      6   3   2     2.699172274369   120.19545737    26.12530070
 N      9   6   3     2.582210453366   120.37382492   358.65335953
 H      1   2   3     2.079536637789   109.93987968   295.26235335
 H      1   2   3     2.058981015546   111.38670332   176.41293459
 C     10   9   6     2.750990883811   121.08265994   172.02035518
 C     13  10   9     2.866261650083   111.18944507    37.54599780
 H     13  10   9     2.079637077086   109.13255329   275.93572747
 H     13  10   9     2.057787097086   107.47985570   159.66291146
 C     14  13  10     2.875583937518   109.76329780   302.69847529
 H     14  13  10     2.060129723275   109.23704004   181.22344689
 H     14  13  10     2.065050889165   109.11661601    63.54553073
 C      9   6   3     2.696310855494   119.87342726   178.95626185
 H     17  14  13     2.071485068221   109.63719076   288.34510863
 H     17  14  13     2.058608412376   110.90077463   171.23432411
 C      6   3   2     2.598072579895   120.71543449   205.73073083
 C     20   9   6     2.612632284897   118.14031862   359.32263996
 C     24  20   9     2.654748134821   123.40021687     1.54592026
 O     24  20   9     2.593996521774   116.43087756   181.41786835
 C     26  24  20     2.634877317595   122.90913950   182.05509170
 C     25  24  20     2.678906587810   119.02401888   179.16374204
 C     28  25  24     2.663991317363   120.92018744   359.46925492
 O     27  26  24     2.313635021804   113.91983077   177.03782362
 C     29  28  25     2.730869500738   121.34216856   181.82927864
 C     31  29  28     2.671790931347   124.79096252   199.50012551
 C     31  29  28     2.687062277924   119.83520257    18.10981063
 N     33  31  29     2.508827041452   124.77973946   180.94247856
 C     34  33  31     2.532557292176   118.17026574     0.59858168
 C     32  31  29     2.607326550061   119.87818708   178.57332956
 H     33  31  29     2.045836957522   119.70486503     3.18513727
 H     36  32  31     2.045542399428   120.48297806   180.80793573
 H     35  34  33     2.048770276288   116.77789268   179.42139915
 H     32  31  29     2.035944320942   119.77974178   359.55109473
 H     23   6   3     2.047601598246   119.10393980     1.17793827
 H     28  25  24     2.038008648306   118.21479628   176.20637995

------------------------------------------------------------------------------
                   ___                                                        
                  /   \      - P O W E R E D   B Y -                         
                 /     \                                                     
                 |  |  |   _    _      __       _____    __    __             
                 |  |  |  | |  | |    /  \     |  _  \  |  |  /  |          
                  \  \/   | |  | |   /    \    | | | |  |  | /  /          
                 / \  \   | |__| |  /  /\  \   | |_| |  |  |/  /          
                |  |  |   |  __  | /  /__\  \  |    /   |      \           
                |  |  |   | |  | | |   __   |  |    \   |  |\   \          
                \     /   | |  | | |  |  |  |  | |\  \  |  | \   \       
                 \___/    |_|  |_| |__|  |__|  |_| \__\ |__|  \__/        
                                                                              
                      - O R C A' S   B I G   F R I E N D -                    
                                      &                                       
                       - I N T E G R A L  F E E D E R -                       
                                                                              
 v1 FN, 2020, v2 2021, v3 2022-2024                                           
------------------------------------------------------------------------------


----------------------
SHARK INTEGRAL PACKAGE
----------------------

Number of atoms                             ...     42
Number of basis functions                   ...    684
Number of shells                            ...    312
Maximum angular momentum                    ...      2
Integral batch strategy                     ... SHARK/LIBINT Hybrid
RI-J (if used) integral strategy            ... SPLIT-RIJ (Revised 2003 algorithm where possible)
Printlevel                                  ...      1
Contraction scheme used                     ... SEGMENTED contraction
Prescreening option                         ... SCHWARTZ
   Thresh                                   ... 2.500e-11
   Tcut                                     ... 2.500e-12
   Tpresel                                  ... 2.500e-12 
Coulomb Range Separation                    ... NOT USED
Exchange Range Separation                   ... NOT USED
Multipole approximations                    ... NOT USED
Finite Nucleus Model                        ... NOT USED
CABS basis                                  ... NOT available
Auxiliary Coulomb fitting basis             ... AVAILABLE
   # of basis functions in Aux-J            ...   1374
   # of shells in Aux-J                     ...    450
   Maximum angular momentum in Aux-J        ...      4
Auxiliary J/K fitting basis                 ... NOT available
Auxiliary Correlation fitting basis         ... AVAILABLE
   # of basis functions in Aux-C            ...   2094
   # of shells in Aux-C                     ...    654
   Maximum angular momentum in Aux-C        ...      4
Auxiliary 'external' fitting basis          ... NOT available

Checking pre-screening integrals            ... done (  0.0 sec) Dimension = 312
Check shell pair data                       ... done (  0.0 sec)
Shell pair information
Shell pair cut-off parameter TPreSel        ...   2.5e-12
Total number of shell pairs                 ...     48828
Shell pairs after pre-screening             ...     32415
Total number of primitive shell pairs       ...    159912
Primitive shell pairs kept                  ...     69773
          la=0 lb=0:   9552 shell pairs
          la=1 lb=0:  10758 shell pairs
          la=1 lb=1:   3024 shell pairs
          la=2 lb=0:   5320 shell pairs
          la=2 lb=1:   3005 shell pairs
          la=2 lb=2:    756 shell pairs

Calculating one electron integrals          ... done (  0.1 sec)
Calculating RI/J V-Matrix + Cholesky decomp.... done (  0.3 sec)
Calculating RI/C V-Matrix + Cholesky decomp.... done (  0.7 sec)
Calculating Nuclear repulsion               ... done (  0.0 sec) ENN=   1942.754640821127 Eh

Diagonalization of the overlap matrix:
Smallest eigenvalue                        ... 3.466e-06
Time for diagonalization                   ...    0.035 sec
Threshold for overlap eigenvalues          ... 1.000e-07
Number of eigenvalues below threshold      ... 0
Time for construction of square roots      ...    0.055 sec
Total time needed                          ...    0.099 sec

-------------------
DFT GRID GENERATION
-------------------

General Integration Accuracy     IntAcc      ... 4.388
Radial Grid Type                 RadialGrid  ... OptM3 with GC (2021)
Angular Grid (max. ang.)         AngularGrid ... 4 (Lebedev-302)
Angular grid pruning method      GridPruning ... 4 (adaptive)
Weight generation scheme         WeightScheme... mBecke (2022)
Basis function cutoff            BFCut       ... 1.0000e-11
Integration weight cutoff        WCut        ... 1.0000e-14
Partially contracted basis set               ... off
Rotationally invariant grid construction     ... off
Angular grids for H and He will be reduced by one unit

Total number of grid points                  ...   200227
Total number of batches                      ...     3148
Average number of points per batch           ...       63
Average number of grid points per atom       ...     4767

--------------------
COSX GRID GENERATION
--------------------

GRIDX 1
-------
General Integration Accuracy     IntAcc      ... 3.816
Radial Grid Type                 RadialGrid  ... OptM3 with GC (2021)
Angular Grid (max. ang.)         AngularGrid ... 1 (Lebedev-50)
Angular grid pruning method      GridPruning ... 4 (adaptive)
Weight generation scheme         WeightScheme... mBecke (2022)
Basis function cutoff            BFCut       ... 1.0000e-11
Integration weight cutoff        WCut        ... 1.0000e-14
Partially contracted basis set               ... on
Rotationally invariant grid construction     ... off
Angular grids for H and He will be reduced by one unit

Total number of grid points                  ...    25422
Total number of batches                      ...      226
Average number of points per batch           ...      112
Average number of grid points per atom       ...      605
UseSFitting                                  ... on

GRIDX 2
-------
General Integration Accuracy     IntAcc      ... 4.020
Radial Grid Type                 RadialGrid  ... OptM3 with GC (2021)
Angular Grid (max. ang.)         AngularGrid ... 2 (Lebedev-110)
Angular grid pruning method      GridPruning ... 4 (adaptive)
Weight generation scheme         WeightScheme... mBecke (2022)
Basis function cutoff            BFCut       ... 1.0000e-11
Integration weight cutoff        WCut        ... 1.0000e-14
Partially contracted basis set               ... on
Rotationally invariant grid construction     ... off
Angular grids for H and He will be reduced by one unit

Total number of grid points                  ...    55228
Total number of batches                      ...      453
Average number of points per batch           ...      121
Average number of grid points per atom       ...     1315
UseSFitting                                  ... on

GRIDX 3
-------
General Integration Accuracy     IntAcc      ... 4.338
Radial Grid Type                 RadialGrid  ... OptM3 with GC (2021)
Angular Grid (max. ang.)         AngularGrid ... 3 (Lebedev-194)
Angular grid pruning method      GridPruning ... 4 (adaptive)
Weight generation scheme         WeightScheme... mBecke (2022)
Basis function cutoff            BFCut       ... 1.0000e-11
Integration weight cutoff        WCut        ... 1.0000e-14
Partially contracted basis set               ... on
Rotationally invariant grid construction     ... off
Angular grids for H and He will be reduced by one unit

Total number of grid points                  ...   120901
Total number of batches                      ...      972
Average number of points per batch           ...      124
Average number of grid points per atom       ...     2879
UseSFitting                                  ... on
Initializing property integral containers    ... done (  0.0 sec)

SHARK setup successfully completed in   8.4 seconds

Maximum memory used throughout the entire STARTUP-calculation: 139.8 MB
Occupation numbers will be reassigned to an Aufbau configuration
             **** ENERGY FILE WAS UPDATED (NMU-1.en.tmp) ****
Finished Guess after   5.0 sec
Maximum memory used throughout the entire GUESS-calculation: 88.9 MB
--------------------
CPCM SOLVATION MODEL
--------------------
CPCM parameters:
  Epsilon                                         ...      80.1510
  Refrac                                          ...       1.3328
  Rsolv                                           ...       1.3000
  Surface type                                    ... GAUSSIAN VDW
  Discretization scheme                           ... Constant charge density
    Threshold for H atoms                         ...       5.0000 (charges/Ang^2)
    Threshold for non-H atoms                     ...       5.0000 (charges/Ang^2)
  Epsilon function type                           ...         CPCM
Solvent:                                          ... WATER
Radii:
  Scheme                                          ... Element-dependent radii
  Radius for C  used is    3.8550 Bohr (=   2.0400 Ang.)
  Radius for H  used is    2.4944 Bohr (=   1.3200 Ang.)
  Radius for N  used is    3.5149 Bohr (=   1.8600 Ang.)
  Radius for O  used is    3.4469 Bohr (=   1.8240 Ang.)
Calculating surface                               ...        done! (  0.0s)
Cavity surface points                             ...         3529
Cavity Volume                                     ...    2460.2369
Cavity Surface-area                               ...    1212.3451
Calculating surface distance matrix               ...        done! (  0.0s)
Performing Cholesky decomposition & store         ...        done! (  2.3s)
Overall time for CPCM initialization              ...                 2.3s

----------------------------------------D-I-I-S--------------------------------------------
Iteration    Energy (Eh)           Delta-E    RMSDP     MaxDP     DIISErr   Damp  Time(sec)
-------------------------------------------------------------------------------------------
               ***  Starting incremental Fock matrix formation  ***
                              *** Initializing SOSCF ***
---------------------------------------S-O-S-C-F--------------------------------------
Iteration    Energy (Eh)           Delta-E    RMSDP     MaxDP     MaxGrad    Time(sec)
--------------------------------------------------------------------------------------
    1    -1032.6975337866151676     0.00e+00  7.40e-05  4.82e-03  7.02e-05    40.1
               *** Restarting incremental Fock matrix formation ***
    2    -1032.6975556130746554    -2.18e-05  1.73e-05  9.67e-04  9.19e-05    38.3
    3    -1032.6975579592085523    -2.35e-06  6.54e-06  4.02e-04  2.96e-05    24.7
    4    -1032.6975576742165686     2.85e-07  4.25e-06  2.77e-04  6.13e-05    20.2
    5    -1032.6975580805624304    -4.06e-07  2.45e-06  2.25e-04  7.27e-06    20.8
    6    -1032.6975580737112068     6.85e-09  1.83e-06  1.52e-04  6.50e-06    15.7
                 **** Energy Check signals convergence ****

               *****************************************************
               *                     SUCCESS                       *
               *           SCF CONVERGED AFTER   6 CYCLES          *
               *****************************************************

Recomputing exchange energy using gridx3       ... done (   63.522 sec)
Old exchange energy                            :    -27.996221421 Eh
New exchange energy                            :    -27.996208353 Eh
Exchange energy change after final integration :      0.000013068 Eh
Total energy after final integration           :  -1032.697545006 Eh
             **** ENERGY FILE WAS UPDATED (NMU-1.en.tmp) ****

----------------
TOTAL SCF ENERGY
----------------

Total Energy       :      -1032.69754500572617 Eh          -28101.12883 eV

Components:
Nuclear Repulsion  :       1942.75464082112694 Eh           52865.04138 eV
Electronic Energy  :      -2975.42404657163570 Eh          -80965.40451 eV
One Electron Energy:      -5261.57114869148427 Eh         -143174.62981 eV
Two Electron Energy:       2286.14710211984857 Eh           62209.22530 eV
CPCM Dielectric    :         -0.02815232320244 Eh              -0.76606 eV

Virial components:
Potential Energy   :      -2060.87694482278675 Eh          -56079.31269 eV
Kinetic Energy     :       1028.17939981706081 Eh           27978.18385 eV
Virial Ratio       :          2.00439431600115

DFT components:
N(Alpha)           :       83.999947085395 electrons
N(Beta)            :       83.999947085395 electrons
N(Total)           :      167.999894170790 electrons
E(X)               :     -111.267853942585 Eh       
E(C)               :       -6.755445642357 Eh       
E(XC)              :     -118.023299584942 Eh       

CPCM Solvation Model Properties:
Surface-charge          :         -0.03915437004753
Corrected charge        :         -0.00000000000000
Outlying charge corr.   :          0.00007902017930 Eh               0.00215 eV
Free-energy (cav+disp)  :  This term is not implemented in the current solvation scheme

---------------
SCF CONVERGENCE
---------------

  Last Energy change         ...   -6.8512e-09  Tolerance :   1.0000e-08
  Last MAX-Density change    ...    1.5192e-04  Tolerance :   1.0000e-07
  Last RMS-Density change    ...    1.8295e-06  Tolerance :   5.0000e-09
  Last DIIS Error            ...    1.7170e-03  Tolerance :   5.0000e-07
  Last Orbital Gradient      ...    6.5008e-06  Tolerance :   1.0000e-05
  Last Orbital Rotation      ...    1.3376e-05  Tolerance :   1.0000e-05


Total SCF time: 0 days 0 hours 3 min 47 sec 
Finished LeanSCF after 227.6 sec

Maximum memory used throughout the entire LEANSCF-calculation: 170.6 MB

------------------------------------------------------------------------------
                         ORCA PROPERTY INTEGRAL CALCULATIONS
------------------------------------------------------------------------------

GBWName                                   ... NMU-1.gbw
Number of atoms                           ...     42
Number of basis functions                 ...    684
Max core memory                           ...   1024 MB

Dipole integrals                          ... YES
Quadrupole integrals                      ...  NO
Linear momentum integrals                 ... YES
Angular momentum integrals                ... YES
Higher moments length integrals           ...  NO
Higher moments velocity integrals         ...  NO
Kinetic energy integrals                  ...  NO
GIAO right hand sides                     ...  NO
GIAO dipole derivative integrals          ...  NO
SOC integrals                             ...  NO
EPR diamagnetic integrals (GIAO)          ...  NO
EPR gauge integrals                       ...  NO
Field gradient integrals                  ...  NO (   0 nuclei)
Spin-dipole/Fermi contact integrals       ...  NO (   0 nuclei)
Contact density integrals                 ...  NO (   0 nuclei)
Nucleus-orbit integrals                   ...  NO (   0 nuclei)
Geometric perturbations                   ...  NO (  42 nuclei)

Choice of electric origin   ... Center of mass
Position of electric origin ... ( -2.6981, -5.0961,  0.1058) 
Choice of magnetic origin   ... GIAO
Position of magnetic origin ... (  0.0000,  0.0000,  0.0000) 

Calculating integrals                     ... Electric Dipole (Length)     done (  0.1 sec)
Calculating integrals                     ... Linear Momentum              done (  0.2 sec)
Calculating integrals                     ... Angular Momentum  (ElOri)    done (  0.2 sec)

Property integrals calculated in   0.5 sec

Maximum memory used throughout the entire PROPINT-calculation: 91.8 MB
------------------------------------------------------------------------------
                        ORCA TD-DFT/TDA CALCULATION
------------------------------------------------------------------------------

Input orbitals are from        ... NMU-1.gbw
CI-vector output               ... NMU-1.cis
Solver                         ... FN-2001
Tamm-Dancoff approximation     ... operative
CIS-Integral strategy          ... AO-integrals
Integral handling              ... AO integral Direct
Max. core memory used          ... 512 MB
Reference state                ... RHF
Generation of triplets         ... off
Follow IRoot                   ... off
Number of operators            ... 1
Orbital ranges used for CIS calculation:
 Operator 0:  Orbitals  24... 83  to  84...683
XAS localization array:
 Operator 0:  Orbitals  -1... -1

-------------------
XC-INTEGRATION GRID
-------------------

General Integration Accuracy     IntAcc      ... 3.467
Radial Grid Type                 RadialGrid  ... OptM3 with GC (2021)
Angular Grid (max. ang.)         AngularGrid ... 1 (Lebedev-50)
Angular grid pruning method      GridPruning ... 4 (adaptive)
Weight generation scheme         WeightScheme... mBecke (2022)
Basis function cutoff            BFCut       ... 1.0000e-11
Integration weight cutoff        WCut        ... 1.0000e-14
Partially contracted basis set               ... off
Rotationally invariant grid construction     ... off
Angular grids for H and He will be reduced by one unit

Total number of grid points                  ...    29194
Total number of batches                      ...      474
Average number of points per batch           ...       61
Average number of grid points per atom       ...      695

---------------------
COSX-INTEGRATION GRID
---------------------

General Integration Accuracy     IntAcc      ... 3.067
Radial Grid Type                 RadialGrid  ... OptM3 with GC (2021)
Angular Grid (max. ang.)         AngularGrid ... 1 (Lebedev-50)
Angular grid pruning method      GridPruning ... 4 (adaptive)
Weight generation scheme         WeightScheme... mBecke (2022)
Basis function cutoff            BFCut       ... 1.0000e-11
Integration weight cutoff        WCut        ... 1.0000e-14
Partially contracted basis set               ... on
Rotationally invariant grid construction     ... off
Angular grids for H and He will be reduced by one unit

Total number of grid points                  ...    13512
Total number of batches                      ...      134
Average number of points per batch           ...      100
Average number of grid points per atom       ...      322

---------------
TD-DFT XC SETUP
---------------

DFT calculation                         ... on
Name of the grid file                   ... NMU-1.grid_cis.tmp
RI-approximation                        ... on
Aux-basis dimension                     ... 2094
Exchange functional (TD-DFT)            ... B88
   X-Alpha parameter    XAlpha (TD-DFT) ...  0.666667
   Becke's b parameter  XBeta (TD-DFT)  ...  0.004200
Correlation functional (TD-DFT)         ... LYP
 LDA part of GGA corr.  LDAOpt (TD-DFT) ... VWN-5
Hybrid DFT                              ... on
   Exchange mixing (TD-DFT)             ...  0.200
   GGA exch. scaling (TD-DFT)           ...  0.720
   GGA corr. scaling (TD-DFT)           ...  0.810

Building densities             ... done
Calculating rho(r) on the grid ... done
Building xc-kernel on the grid ... done
                    *** TD-DFT CALCULATION INITIALIZED ***

-----------------------------
    LR-CPCM (equilibrium)
-----------------------------

Setting up LR-CPCM             ... done

------------------------
DAVIDSON-DIAGONALIZATION
------------------------

Dimension of the eigenvalue problem            ...  36000
Number of roots to be determined               ...      1
Maximum size of the expansion space            ...     10
Maximum number of iterations                   ...    100
Convergence tolerance for the residual         ...    2.500e-07
Convergence tolerance for the energies         ...    2.500e-07
Orthogonality tolerance                        ...    1.000e-14
Level Shift                                    ...    0.000e+00
Constructing the preconditioner                ... o.k.
Building the initial guess                     ... o.k.
Number of trial vectors determined             ...     10


                       ****Iteration    0****
   Time for iteration     :  TOTAL=23.4 TRAFO=0.7 RIJ=3.6 COSX=9.0 XC=1.3
   Size of expansion space: 3
   Lowest Energy          :     0.117522593584
   Maximum Energy change  :     0.117522593584 (vector 0)
   Maximum residual norm  :     0.017930003739

                       ****Iteration    1****
   Time for iteration     :  TOTAL=18.5 TRAFO=0.0 RIJ=2.7 COSX=7.4 XC=0.5
   Size of expansion space: 4
   Lowest Energy          :     0.101172644644
   Maximum Energy change  :     0.016349948940 (vector 0)
   Maximum residual norm  :     0.000595112147

                       ****Iteration    2****
   Time for iteration     :  TOTAL=18.8 TRAFO=0.2 RIJ=2.8 COSX=7.5 XC=0.5
   Size of expansion space: 5
   Lowest Energy          :     0.100550977900
   Maximum Energy change  :     0.000621666744 (vector 0)
   Maximum residual norm  :     0.000058491199

                       ****Iteration    3****
   Time for iteration     :  TOTAL=18.5 TRAFO=0.2 RIJ=2.6 COSX=7.4 XC=0.5
   Size of expansion space: 6
   Lowest Energy          :     0.100457021880
   Maximum Energy change  :     0.000093956020 (vector 0)
   Maximum residual norm  :     0.000007082842

                       ****Iteration    4****
   Time for iteration     :  TOTAL=18.3 TRAFO=0.0 RIJ=2.6 COSX=7.4 XC=0.5
   Size of expansion space: 7
   Lowest Energy          :     0.100449398983
   Maximum Energy change  :     0.000007622897 (vector 0)
   Maximum residual norm  :     0.000000621287

                       ****Iteration    5****
   Time for iteration     :  TOTAL=20.3 TRAFO=0.2 RIJ=2.6 COSX=9.1 XC=0.5
   Size of expansion space: 8
   Lowest Energy          :     0.100448772131
   Maximum Energy change  :     0.000000626852 (vector 0)
   Maximum residual norm  :     0.000000073569

      *** CONVERGENCE OF RESIDUAL NORM REACHED ***

Storing the converged CI vectors               ... NMU-1.cis1

                 *** DAVIDSON DONE ***

Total time for solving the CIS problem:   118.808sec

------------------------------------
TD-DFT/TDA EXCITED STATES (SINGLETS)
------------------------------------

the weight of the individual excitations are printed if larger than 1.0e-02

STATE  1:  E=   0.100449 au      2.733 eV    22046.0 cm**-1 <S**2> =   0.000000 Mult 1
    83a ->  84a  :     0.970346 (c=  0.98506164)


-----------------------------
TD-DFT/TDA-EXCITATION SPECTRA
-----------------------------

Center of mass = ( -2.6981, -5.0961,  0.1058)
Generating CIS transition densities           ... done

----------------------------------------------------------------------------------------------------
                     ABSORPTION SPECTRUM VIA TRANSITION ELECTRIC DIPOLE MOMENTS    
----------------------------------------------------------------------------------------------------
     Transition      Energy     Energy  Wavelength fosc(D2)      D2        DX        DY        DZ   
                      (eV)      (cm-1)    (nm)                 (au**2)    (au)      (au)      (au)  
----------------------------------------------------------------------------------------------------
  0-1A  ->  1-1A    2.733350   22046.0   453.6   1.396827456  20.85880  -4.31348   1.49977  -0.05852

----------------------------------------------------------------------------------------------------
                     ABSORPTION SPECTRUM VIA TRANSITION VELOCITY DIPOLE MOMENTS    
----------------------------------------------------------------------------------------------------
     Transition      Energy     Energy  Wavelength fosc(P2)      P2        PX        PY        PZ   
                      (eV)      (cm-1)    (nm)                 (au**2)    (au)      (au)      (au)  
----------------------------------------------------------------------------------------------------
  0-1A  ->  1-1A    2.733350   22046.0   453.6   0.737740356   0.11116   0.30465  -0.13530  -0.00646

------------------------------------------------------------------------------------------
                     CD SPECTRUM VIA TRANSITION ELECTRIC DIPOLE MOMENTS    
------------------------------------------------------------------------------------------
     Transition      Energy     Energy  Wavelength    R        MX        MY        MZ   
                      (eV)      (cm-1)    (nm)   (1e40*cgs)   (au)      (au)      (au)  
------------------------------------------------------------------------------------------
  0-1A  ->  1-1A    2.733350   22046.0   453.6  -34.97279  -0.04520  -0.07020   0.26504

------------------------------------------------------------------------------------------
                     CD SPECTRUM VIA TRANSITION VELOCITY DIPOLE MOMENTS    
------------------------------------------------------------------------------------------
     Transition      Energy     Energy  Wavelength    R        MX        MY        MZ   
                      (eV)      (cm-1)    (nm)   (1e40*cgs)   (au)      (au)      (au)  
------------------------------------------------------------------------------------------
  0-1A  ->  1-1A    2.733350   22046.0   453.6  -28.08365  -0.04520  -0.07020   0.26504

Total run time:      120.275 sec

           *** ORCA-CIS/TD-DFT FINISHED WITHOUT ERROR ***
-----------------------
CIS/TD-DFT TOTAL ENERGY
-----------------------

    E(SCF)  =  -1032.697545006 Eh
    DE(CIS) =      0.100448772 Eh (Root  1)
    ----------------------------- ---------
    E(tot)  =  -1032.597096234 Eh


------------------------
TD-DFT GRADIENT XC SETUP
------------------------

Building densities                     ... done
Calculating rho(r) on the grid         ... done
Building xc-kernel on the grid         ... done
Building xc 3rd derivative on the grid ... done
                *** TD-DFT GRADIENT CALCULATION INITIALIZED ***

--------------------------
TD-DFT/TDA RELAXED DENSITY
--------------------------

Reference wavefunction             ... RHF
State of interest                  ... 1
Basis dimension                    ... 684
DFT-XC contribution needed         ... YES
RI-approximation                   ... YES
Do Coulomb                         ... YES
Do Exchange                        ... YES
Need Hartree-Fock Exchange         ... YES
facj, facx                         ...  2.000, -0.200
Conventional                       ... NO
Range separation                   ... NO
Triplet state                      ... NO
Spin Flip                          ... NO
CIS-vectors being read from        ... NMU-1.cis
 => Number of Vectors found: 1
 => Orbital Window: 24...83 -> 84...683

Reading the CIS file                     ... done
Norm of the CI vector                    ... 1.000000000
Reading the CPCM file                    ... done
Making the CIS (pseudo)densities         ... done
Making operators G(D) and Q(T)           ... (SHARK-ok)done
Transforming the Fock operators          ... done
Making the frozen-core relaxed density   ... done
Constructing the G(H) operator           ... (SHARK-ok)done
Transforming the G(H) operator           ... done
Calculating the CIS Lagrangian           ... done
Solving the Z-vector equations           ... 

Using XC Grid                  ... (NMU-1.grid_cpscf.tmp) 
Recalculating density on grid  ... (NMU-1.grho_cpscf0.tmp) done
Calculating the xc-kernel      ... (NMU-1.fxc_cpscf0.tmp) done

-------------------
SHARK CP-SCF DRIVER
-------------------

Dimension of the orbital basis          ...    684
Dimension of the CPSCF-problem          ...  50400
Number of operators                     ...      1
Max. number of iterations               ...    128
Convergence Tolerance                   ... 1.0e-04
Number of perturbations                 ...      1
Perturbation type                       ... REAL

----------------------------
POPLE LINEAR EQUATION SOLVER
----------------------------

  ITERATION   0:   ||err||_max =   1.9004e+00 (  18.5 sec)
  ITERATION   1:   ||err||_max =   1.0872e-01 (  18.3 sec)
  ITERATION   2:   ||err||_max =   2.2244e-02 (  18.2 sec)
  ITERATION   3:   ||err||_max =   8.1980e-03 (  18.3 sec)
  ITERATION   4:   ||err||_max =   3.6374e-03 (  18.7 sec)
  ITERATION   5:   ||err||_max =   1.3525e-03 (  19.3 sec)
  ITERATION   6:   ||err||_max =   3.6784e-04 (  18.5 sec)
  ITERATION   7:   ||err||_max =   1.2500e-04 (  18.8 sec)
  ITERATION   8:   ||err||_max =   4.9927e-05 (  20.7 sec)

Finalizing the relaxed density           ... done
Storing the relaxed density              ... done
Constructing the G(Z) operator           ... (SHARK-ok)done
Adding the CPCM contribution             ... done
Adding the XC terms                      ... done
Transforming the G(Z) operator           ... done
Making the W-matrix                      ... done
Finalizing the W-matrix                  ... done
Transforming the W-matrix                ... done
Nuc. rep. gradient        (SHARK) ... done (  0.0 sec)
HCore & Overlap gradient  (SHARK) ... done (  1.6 sec)
Split-RIJ-J gradient      (SHARK) ... done ( 11.2 sec)
COSX-gradient                     ... done ( 95.8 sec)
CPCM gradient                     ... done ( 10.3 sec)
Dispersion correction             ... done (  0.0 sec)

-------------------
DISPERSION GRADIENT
-------------------

   1   C   :   -0.000805257    0.000045743   -0.000048828
   2   C   :   -0.000634525   -0.000222594   -0.000355305
   3   C   :   -0.000457806   -0.000593722   -0.000232812
   4   H   :   -0.000258839   -0.000009269   -0.000422227
   5   H   :   -0.000324193   -0.000099804   -0.000156969
   6   C   :   -0.000137091   -0.000712034   -0.000193756
   7   H   :   -0.000138611   -0.000334852   -0.000193139
   8   H   :   -0.000248137   -0.000396728    0.000110196
   9   C   :   -0.000012540   -0.000088223    0.000034561
  10   N   :   -0.000560005    0.000360993    0.000105992
  11   H   :   -0.000439295   -0.000021178    0.000227529
  12   H   :   -0.000398535    0.000159857   -0.000059327
  13   C   :   -0.000336723    0.000694271    0.000250419
  14   C   :    0.000046436    0.000772598    0.000053221
  15   H   :   -0.000223396    0.000256523    0.000369485
  16   H   :   -0.000267097    0.000333134    0.000039118
  17   C   :    0.000275240    0.000707028    0.000241352
  18   H   :    0.000013612    0.000374343    0.000045156
  19   H   :    0.000045509    0.000435535   -0.000237579
  20   C   :    0.000314397    0.000364737    0.000189316
  21   H   :    0.000172640    0.000267085    0.000367050
  22   H   :    0.000221814    0.000358605    0.000021148
  23   C   :    0.000001156   -0.000737422   -0.000206761
  24   C   :    0.000301230    0.000033460    0.000082907
  25   C   :    0.000002655   -0.000432321   -0.000106518
  26   O   :    0.000391204    0.000326801    0.000166879
  27   C   :    0.000382089    0.000547028    0.000221453
  28   C   :   -0.000099614   -0.000456855   -0.000117484
  29   C   :    0.000050261    0.000101268    0.000054096
  30   O   :    0.000354024    0.000630155    0.000218872
  31   C   :    0.000256734   -0.000187086   -0.000036282
  32   C   :    0.000602306    0.000073249    0.000319156
  33   C   :    0.000105266   -0.000564298   -0.000391716
  34   N   :    0.000209266   -0.000532122   -0.000315094
  35   C   :    0.000469232   -0.000363552   -0.000077399
  36   C   :    0.000605690   -0.000108548    0.000172989
  37   H   :   -0.000095942   -0.000285768   -0.000270840
  38   H   :    0.000289590    0.000046757    0.000146845
  39   H   :    0.000237915   -0.000201407   -0.000050024
  40   H   :    0.000230147    0.000200782    0.000251016
  41   H   :   -0.000031629   -0.000395719   -0.000129157
  42   H   :   -0.000109182   -0.000346450   -0.000087539

Difference to translation invariance:
           :    0.0000000000    0.0000000000    0.0000000000

Difference to rotation invariance:
           :   -0.0000000000   -0.0000000000   -0.0000000000

Norm of the Dispersion gradient    ...    0.0036151756
RMS gradient                       ...    0.0003220654
MAX gradient                       ...    0.0008052570

                 ---------------------------
                 EXCITED STATE GRADIENT DONE
                 ---------------------------

------------------
CARTESIAN GRADIENT
------------------

   1   C   :    0.000016527   -0.000001287    0.000017092
   2   C   :   -0.000005365   -0.000022560    0.000019700
   3   C   :    0.000007447    0.000018643   -0.000029956
   4   H   :    0.000035620    0.000022010    0.000012293
   5   H   :   -0.000010923   -0.000000926   -0.000012581
   6   C   :   -0.000004765    0.000065936    0.000012203
   7   H   :    0.000014992    0.000013992   -0.000020001
   8   H   :    0.000012581    0.000018851    0.000029348
   9   C   :   -0.000065266    0.000021433    0.000025042
  10   N   :    0.000071300   -0.000023877   -0.000008825
  11   H   :    0.000022300   -0.000025901    0.000024754
  12   H   :   -0.000001577   -0.000006318   -0.000011905
  13   C   :    0.000066950   -0.000014759   -0.000050650
  14   C   :   -0.000067026    0.000023294    0.000029501
  15   H   :   -0.000026598   -0.000028579    0.000026511
  16   H   :   -0.000005936    0.000002526   -0.000014325
  17   C   :    0.000027695   -0.000032235   -0.000031980
  18   H   :   -0.000001320   -0.000002043    0.000024479
  19   H   :    0.000003925   -0.000067127   -0.000001381
  20   C   :   -0.000022840   -0.000027686   -0.000015335
  21   H   :   -0.000027866   -0.000030990    0.000024464
  22   H   :   -0.000009732   -0.000015172    0.000016713
  23   C   :    0.000020032   -0.000010038    0.000009972
  24   C   :    0.000069378    0.000054589    0.000021406
  25   C   :    0.000079358   -0.000058587   -0.000000629
  26   O   :   -0.000017877   -0.000034666   -0.000061271
  27   C   :   -0.000103870   -0.000122856    0.000176176
  28   C   :   -0.000102655    0.000035369   -0.000033816
  29   C   :    0.000066251    0.000043378   -0.000054020
  30   O   :    0.000049687    0.000048980   -0.000043407
  31   C   :   -0.000048825    0.000068511    0.000093477
  32   C   :   -0.000017485   -0.000006552   -0.000037294
  33   C   :   -0.000029092   -0.000002977   -0.000060338
  34   N   :   -0.000000788   -0.000010968    0.000012809
  35   C   :   -0.000008316    0.000022133    0.000031596
  36   C   :   -0.000006882   -0.000025325   -0.000016341
  37   H   :    0.000031175   -0.000002300    0.000009829
  38   H   :   -0.000000909    0.000009998    0.000017926
  39   H   :    0.000012028   -0.000002571   -0.000000976
  40   H   :   -0.000019835    0.000035311    0.000030156
  41   H   :    0.000000397   -0.000003790   -0.000003995
  42   H   :   -0.000039129    0.000029911    0.000022226

Difference to translation invariance:
           :   -0.0000372351   -0.0000452250    0.0001786456

Difference to rotation invariance:
           :   -0.0004560965   -0.0002541451    0.0008256026

Norm of the Cartesian gradient     ...    0.0004409635
RMS gradient                       ...    0.0000392842
MAX gradient                       ...    0.0001761759

------------------------------------------------------------------------------
                  RELAXED CIS/TDA DENSITY POPULATION ANALYSIS
                                   IROOT 1
------------------------------------------------------------------------------
------------------------------------------------------------------------------
                           ORCA POPULATION ANALYSIS
------------------------------------------------------------------------------
Input electron density              ... NMU-1.cispre.singlet.iroot1
BaseName (.gbw .S,...)              ... NMU-1

-------
TIMINGS
-------

Total TD-DFT gradient time  ....      497.890 sec

Fock matrix formation       ....     138.006 sec  ( 27.7%)
  Coulomb formation         ....     127.869 sec  ( 92.7% of F)
  XC integration            ....      10.138 sec  (  7.3% of F)
Z-vector equation           ....     170.455 sec  ( 34.2%)
Densities                   ....       0.000 sec  (  0.0%)
One electron gradient       ....       1.643 sec  (  0.3%)
Two electron gradient       ....       0.000 sec  (  0.0%)
RI-J Coulomb gradient       ....      11.202 sec  (  2.2%)
COSX gradient               ....      27.597 sec  (  5.5%)
XC gradient                 ....      95.777 sec  ( 19.2%)
CPCM gradient               ....      10.260 sec  (  2.1%)
   A-Matrix (El+Nuc)        ....       0.245 sec  (  0.0%)
   Potential                ....      10.015 sec  (  2.0%)

Maximum memory used throughout the entire CIS-calculation: 348.6 MB
=> NOW LEAVING ORCA_CIS


-------------------------------------------------------------------------------
                          DFT DISPERSION CORRECTION                            
                                                                               
                              DFTD3 V3.1  Rev 1                                
                          USING Becke-Johnson damping                          
-------------------------------------------------------------------------------
-------------------------   ----------------
Dispersion correction           -0.098180124
-------------------------   ----------------


-------------------------   --------------------
FINAL SINGLE POINT ENERGY     -1032.695276357119
-------------------------   --------------------

------------------------------------------------------------------------------
                         ORCA GEOMETRY RELAXATION STEP
------------------------------------------------------------------------------

Reading the OPT-File                    .... done
Getting information on internals        .... done
Copying old internal coords+grads       .... done
Making the new internal coordinates     .... (2022 redundants) done
Validating the new internal coordinates .... (2022 redundants) done
Calculating the B-matrix                .... done
Calculating the G,G- and P matrices     .... done
Transforming gradient to internals      .... done
Projecting the internal gradient        .... done
Number of atoms                         ....  42
Number of internal coordinates          .... 241
Current Energy                          .... -1032.695276357 Eh
Current gradient norm                   ....     0.000440964 Eh/bohr
Maximum allowed component of the step   ....  0.300
Current trust radius                    ....  0.300
Updating the Hessian (BFGS)             .... done
Forming the augmented Hessian           .... done
Diagonalizing the augmented Hessian     .... done
Last element of RFO vector              ....  0.999987226
Lowest eigenvalues of augmented Hessian:
 -0.000000971  0.006347978  0.015148596  0.016618043  0.017907121
Length of the computed step             ....  0.005054502
The final length of the internal step   ....  0.005054502
Converting the step to Cartesian space:
 Initial RMS(Int)=    0.0003255891
Transforming coordinates:
 Iter   0:  RMS(Cart)=    0.0008624311 RMS(Int)=    0.0003255993
done
Storing new coordinates                 .... done
The predicted energy change is          ....    -0.000000486
Previously predicted energy change      ....    -0.000001745
Actually observed energy change         ....     0.000000815
Ratio of predicted to observed change   ....     0.466731296
New trust radius                        ....     0.200000000

                                .--------------------.
          ----------------------|Geometry convergence|-------------------------
          Item                value                   Tolerance       Converged
          ---------------------------------------------------------------------
          Energy change       0.0000008146            0.0000050000      YES
          RMS gradient        0.0000278303            0.0001000000      YES
          MAX gradient        0.0001683847            0.0003000000      YES
          RMS step            0.0003255891            0.0020000000      YES
          MAX step            0.0013008492            0.0040000000      YES
          ........................................................
          Max(Bonds)      0.0002      Max(Angles)    0.01
          Max(Dihed)        0.07      Max(Improp)    0.00
          ---------------------------------------------------------------------

                    ***********************HURRAY********************
                    ***        THE OPTIMIZATION HAS CONVERGED     ***
                    *************************************************


    ---------------------------------------------------------------------------
                         Redundant Internal Coordinates

                          --- Optimized Parameters ---  
                            (Angstroem and degrees)

        Definition                    OldVal   dE/dq     Step     FinalVal
    ----------------------------------------------------------------------------
     1. B(C   1,C   0)                1.5174 -0.000039  0.0001    1.5175   
     2. B(C   2,C   1)                1.5219 -0.000048  0.0001    1.5220   
     3. B(H   3,C   1)                1.0931  0.000006 -0.0000    1.0931   
     4. B(H   4,C   1)                1.0903  0.000012 -0.0000    1.0903   
     5. B(C   5,C   2)                1.5043 -0.000060  0.0001    1.5044   
     6. B(H   6,C   2)                1.0909  0.000003 -0.0000    1.0909   
     7. B(H   7,C   2)                1.0961  0.000012 -0.0000    1.0961   
     8. B(C   8,C   5)                1.4283 -0.000076  0.0001    1.4284   
     9. B(N   9,C   8)                1.3664 -0.000111  0.0001    1.3666   
    10. B(N   9,C   0)                1.4567 -0.000042  0.0001    1.4568   
    11. B(H  10,C   0)                1.1004  0.000021 -0.0000    1.1004   
    12. B(H  11,C   0)                1.0896  0.000001 -0.0000    1.0896   
    13. B(C  12,N   9)                1.4558 -0.000073  0.0001    1.4559   
    14. B(C  13,C  12)                1.5168 -0.000065  0.0001    1.5169   
    15. B(H  14,C  12)                1.1005  0.000025 -0.0000    1.1005   
    16. B(H  15,C  12)                1.0889  0.000012 -0.0000    1.0889   
    17. B(C  16,C  13)                1.5217 -0.000012  0.0000    1.5217   
    18. B(H  17,C  13)                1.0902  0.000007 -0.0000    1.0902   
    19. B(H  18,C  13)                1.0928  0.000002 -0.0000    1.0928   
    20. B(C  19,C  16)                1.5028 -0.000072  0.0001    1.5029   
    21. B(C  19,C   8)                1.4268 -0.000063  0.0001    1.4269   
    22. B(H  20,C  16)                1.0962  0.000013 -0.0000    1.0962   
    23. B(H  21,C  16)                1.0894 -0.000012  0.0000    1.0894   
    24. B(C  22,C   5)                1.3748 -0.000021  0.0000    1.3749   
    25. B(C  23,C  19)                1.3825 -0.000066  0.0001    1.3826   
    26. B(C  24,C  23)                1.4048 -0.000024  0.0000    1.4049   
    27. B(C  24,C  22)                1.4130 -0.000048  0.0001    1.4130   
    28. B(O  25,C  23)                1.3727 -0.000089  0.0001    1.3728   
    29. B(C  26,O  25)                1.3943 -0.000075  0.0001    1.3944   
    30. B(C  27,C  24)                1.4176 -0.000168  0.0002    1.4178   
    31. B(C  28,C  26)                1.4460 -0.000067  0.0001    1.4461   
    32. B(C  28,C  27)                1.4097  0.000009 -0.0000    1.4097   
    33. B(O  29,C  26)                1.2243  0.000055 -0.0000    1.2243   
    34. B(C  30,C  28)                1.4451 -0.000116  0.0001    1.4453   
    35. B(C  31,C  30)                1.4139 -0.000049  0.0001    1.4139   
    36. B(C  32,C  30)                1.4219  0.000039 -0.0000    1.4219   
    37. B(N  33,C  32)                1.3276  0.000004  0.0000    1.3276   
    38. B(C  34,N  33)                1.3402  0.000009 -0.0000    1.3402   
    39. B(C  35,C  34)                1.3945 -0.000012  0.0000    1.3945   
    40. B(C  35,C  31)                1.3797 -0.000002  0.0000    1.3797   
    41. B(H  36,C  32)                1.0826 -0.000025  0.0001    1.0827   
    42. B(H  37,C  35)                1.0825  0.000006 -0.0000    1.0824   
    43. B(H  38,C  34)                1.0842  0.000013 -0.0000    1.0841   
    44. B(H  39,C  31)                1.0774  0.000040 -0.0000    1.0773   
    45. B(H  40,C  22)                1.0835  0.000004 -0.0000    1.0835   
    46. B(H  41,C  27)                1.0785 -0.000031  0.0001    1.0785   
    47. A(C   1,C   0,H  10)          109.94  0.000016   -0.01    109.93   
    48. A(C   1,C   0,N   9)          111.69 -0.000013    0.01    111.70   
    49. A(N   9,C   0,H  11)          107.34  0.000007   -0.00    107.34   
    50. A(H  10,C   0,H  11)          107.34  0.000014   -0.01    107.33   
    51. A(C   1,C   0,H  11)          111.39 -0.000013    0.00    111.39   
    52. A(N   9,C   0,H  10)          109.00 -0.000009    0.00    109.00   
    53. A(C   2,C   1,H   3)          110.29  0.000005    0.00    110.30   
    54. A(C   0,C   1,H   3)          109.33 -0.000021    0.01    109.33   
    55. A(C   2,C   1,H   4)          111.04  0.000017   -0.01    111.04   
    56. A(H   3,C   1,H   4)          107.86  0.000001   -0.00    107.86   
    57. A(C   0,C   1,H   4)          109.01  0.000006   -0.00    109.01   
    58. A(C   0,C   1,C   2)          109.26 -0.000008    0.00    109.27   
    59. A(C   5,C   2,H   7)          109.27 -0.000046    0.01    109.27   
    60. A(C   1,C   2,C   5)          110.86 -0.000005    0.00    110.87   
    61. A(C   5,C   2,H   6)          109.55 -0.000006    0.00    109.55   
    62. A(C   1,C   2,H   7)          109.08  0.000008   -0.00    109.08   
    63. A(C   1,C   2,H   6)          111.23  0.000008   -0.00    111.23   
    64. A(H   6,C   2,H   7)          106.74  0.000042   -0.01    106.73   
    65. A(C   2,C   5,C   8)          120.20  0.000006   -0.00    120.19   
    66. A(C   2,C   5,C  22)          120.72 -0.000024    0.00    120.72   
    67. A(C   8,C   5,C  22)          119.09  0.000019   -0.00    119.09   
    68. A(C   5,C   8,N   9)          120.37  0.000010   -0.00    120.37   
    69. A(N   9,C   8,C  19)          119.75  0.000005   -0.00    119.75   
    70. A(C   5,C   8,C  19)          119.87 -0.000015    0.00    119.87   
    71. A(C   0,N   9,C   8)          121.33  0.000007    0.00    121.33   
    72. A(C   8,N   9,C  12)          121.08  0.000014   -0.01    121.08   
    73. A(C   0,N   9,C  12)          116.41 -0.000022    0.00    116.41   
    74. A(H  14,C  12,H  15)          107.48  0.000005   -0.00    107.48   
    75. A(C  13,C  12,H  15)          111.36 -0.000006    0.00    111.36   
    76. A(N   9,C  12,H  15)          107.48 -0.000000    0.00    107.48   
    77. A(C  13,C  12,H  14)          110.07  0.000020   -0.01    110.07   
    78. A(N   9,C  12,H  14)          109.13 -0.000018    0.00    109.14   
    79. A(N   9,C  12,C  13)          111.19 -0.000002    0.00    111.19   
    80. A(C  12,C  13,H  17)          109.24  0.000006   -0.00    109.23   
    81. A(C  12,C  13,C  16)          109.76 -0.000007    0.00    109.77   
    82. A(H  17,C  13,H  18)          107.85  0.000049   -0.01    107.83   
    83. A(C  16,C  13,H  18)          110.19 -0.000057    0.01    110.21   
    84. A(C  12,C  13,H  18)          109.12  0.000007    0.00    109.12   
    85. A(C  16,C  13,H  17)          110.64  0.000004   -0.00    110.64   
    86. A(H  20,C  16,H  21)          106.32  0.000005   -0.00    106.32   
    87. A(C  19,C  16,H  21)          109.66 -0.000007   -0.00    109.66   
    88. A(C  13,C  16,H  21)          110.90  0.000014   -0.00    110.90   
    89. A(C  19,C  16,H  20)          108.98  0.000000    0.00    108.98   
    90. A(C  13,C  16,C  19)          111.20 -0.000019    0.01    111.21   
    91. A(C  13,C  16,H  20)          109.64  0.000008   -0.00    109.63   
    92. A(C  16,C  19,C  23)          120.58 -0.000037    0.00    120.58   
    93. A(C   8,C  19,C  23)          118.14  0.000029   -0.00    118.14   
    94. A(C   8,C  19,C  16)          121.28  0.000007    0.00    121.28   
    95. A(C   5,C  22,C  24)          122.56 -0.000020    0.00    122.56   
    96. A(C  24,C  22,H  40)          118.34  0.000011   -0.00    118.34   
    97. A(C   5,C  22,H  40)          119.10  0.000009   -0.00    119.10   
    98. A(C  24,C  23,O  25)          120.17  0.000029   -0.00    120.16   
    99. A(C  19,C  23,O  25)          116.43 -0.000009    0.00    116.43   
   100. A(C  19,C  23,C  24)          123.40 -0.000020    0.00    123.40   
   101. A(C  23,C  24,C  27)          119.02  0.000010   -0.00    119.02   
   102. A(C  22,C  24,C  27)          124.06 -0.000016    0.00    124.06   
   103. A(C  22,C  24,C  23)          116.92  0.000007   -0.00    116.92   
   104. A(C  23,O  25,C  26)          122.91 -0.000023    0.00    122.91   
   105. A(C  28,C  26,O  29)          127.99 -0.000000   -0.00    127.99   
   106. A(O  25,C  26,O  29)          113.92  0.000005    0.00    113.92   
   107. A(O  25,C  26,C  28)          118.08 -0.000006    0.00    118.08   
   108. A(C  24,C  27,C  28)          120.92 -0.000029    0.00    120.92   
   109. A(C  28,C  27,H  41)          120.78  0.000055   -0.01    120.77   
   110. A(C  24,C  27,H  41)          118.21 -0.000026    0.01    118.22   
   111. A(C  27,C  28,C  30)          121.34  0.000050   -0.01    121.33   
   112. A(C  26,C  28,C  30)          119.77 -0.000071    0.01    119.79   
   113. A(C  26,C  28,C  27)          118.87  0.000021   -0.00    118.87   
   114. A(C  31,C  30,C  32)          115.36  0.000017   -0.00    115.36   
   115. A(C  28,C  30,C  32)          119.84  0.000041   -0.01    119.83   
   116. A(C  28,C  30,C  31)          124.79 -0.000059    0.01    124.80   
   117. A(C  35,C  31,H  39)          120.33  0.000021   -0.00    120.33   
   118. A(C  30,C  31,H  39)          119.78 -0.000019    0.00    119.78   
   119. A(C  30,C  31,C  35)          119.88 -0.000001    0.00    119.88   
   120. A(N  33,C  32,H  36)          115.48 -0.000005    0.00    115.48   
   121. A(C  30,C  32,H  36)          119.70  0.000027   -0.01    119.70   
   122. A(C  30,C  32,N  33)          124.78 -0.000022    0.00    124.78   
   123. A(C  32,N  33,C  34)          118.17 -0.000004    0.00    118.17   
   124. A(C  35,C  34,H  38)          120.95  0.000000   -0.00    120.94   
   125. A(N  33,C  34,H  38)          116.78 -0.000005    0.00    116.78   
   126. A(N  33,C  34,C  35)          122.28  0.000005   -0.00    122.28   
   127. A(C  34,C  35,H  37)          119.98  0.000008   -0.00    119.98   
   128. A(C  31,C  35,H  37)          120.48 -0.000013    0.00    120.49   
   129. A(C  31,C  35,C  34)          119.53  0.000005   -0.00    119.53   
   130. D(C   2,C   1,C   0,N   9)     56.39  0.000003   -0.02     56.37   
   131. D(C   2,C   1,C   0,H  10)    -64.74  0.000012   -0.03    -64.77   
   132. D(C   2,C   1,C   0,H  11)    176.41 -0.000007   -0.02    176.40   
   133. D(H   3,C   1,C   0,N   9)    -64.40  0.000015   -0.03    -64.43   
   134. D(H   3,C   1,C   0,H  11)     55.62  0.000006   -0.03     55.59   
   135. D(H   3,C   1,C   0,H  10)    174.47  0.000025   -0.04    174.43   
   136. D(C   5,C   2,C   1,C   0)    -52.33  0.000008    0.00    -52.33   
   137. D(H   6,C   2,C   1,C   0)   -174.49  0.000014   -0.00   -174.49   
   138. D(H   6,C   2,C   1,H   4)     65.23  0.000001    0.00     65.24   
   139. D(H   6,C   2,C   1,H   3)    -54.29 -0.000015    0.01    -54.28   
   140. D(C   5,C   2,C   1,H   3)     67.87 -0.000021    0.01     67.89   
   141. D(C   5,C   2,C   1,H   4)   -172.61 -0.000006    0.01   -172.60   
   142. D(C   8,C   5,C   2,C   1)     26.13 -0.000008    0.01     26.13   
   143. D(C   8,C   5,C   2,H   6)    149.26 -0.000005    0.01    149.27   
   144. D(C  22,C   5,C   2,C   1)   -154.27 -0.000006    0.02   -154.25   
   145. D(C   8,C   5,C   2,H   7)    -94.13  0.000016    0.00    -94.13   
   146. D(C  22,C   5,C   2,H   6)    -31.14 -0.000003    0.02    -31.12   
   147. D(C  19,C   8,C   5,C  22)     -0.66  0.000000    0.00     -0.65   
   148. D(C  19,C   8,C   5,C   2)    178.96  0.000002    0.01    178.97   
   149. D(N   9,C   8,C   5,C  22)    179.04 -0.000001   -0.00    179.04   
   150. D(N   9,C   8,C   5,C   2)     -1.35  0.000001    0.01     -1.34   
   151. D(C  12,N   9,C   8,C  19)     -8.28  0.000007   -0.03     -8.32   
   152. D(C  12,N   9,C   8,C   5)    172.02  0.000008   -0.03    171.99   
   153. D(C   0,N   9,C   8,C  19)   -175.40  0.000014   -0.04   -175.44   
   154. D(C   0,N   9,C   8,C   5)      4.90  0.000015   -0.03      4.87   
   155. D(C  12,N   9,C   0,H  10)    -79.21 -0.000012    0.04    -79.17   
   156. D(C  12,N   9,C   0,C   1)    159.12 -0.000017    0.04    159.16   
   157. D(C   8,N   9,C   0,H  11)   -155.56  0.000001    0.03   -155.52   
   158. D(C   8,N   9,C   0,H  10)     88.48 -0.000014    0.04     88.53   
   159. D(C   8,N   9,C   0,C   1)    -33.19 -0.000019    0.04    -33.15   
   160. D(C  13,C  12,N   9,C   0)   -154.73 -0.000006    0.04   -154.69   
   161. D(H  15,C  12,N   9,C   0)    -32.61 -0.000014    0.05    -32.56   
   162. D(H  14,C  12,N   9,C   8)    -84.06 -0.000015    0.05    -84.02   
   163. D(H  14,C  12,N   9,C   0)     83.66 -0.000017    0.05     83.71   
   164. D(C  13,C  12,N   9,C   8)     37.55 -0.000003    0.04     37.59   
   165. D(H  17,C  13,C  12,H  15)     61.39  0.000005   -0.01     61.38   
   166. D(H  17,C  13,C  12,H  14)    -57.72 -0.000010    0.00    -57.72   
   167. D(H  17,C  13,C  12,N   9)   -178.78 -0.000000    0.00   -178.78   
   168. D(C  16,C  13,C  12,H  15)   -177.14  0.000010   -0.01   -177.15   
   169. D(C  16,C  13,C  12,H  14)     63.76 -0.000006   -0.00     63.75   
   170. D(C  16,C  13,C  12,N   9)    -57.30  0.000004   -0.00    -57.30   
   171. D(H  20,C  16,C  13,H  17)     48.97  0.000012   -0.05     48.93   
   172. D(H  20,C  16,C  13,C  12)    -71.65  0.000007   -0.04    -71.70   
   173. D(C  19,C  16,C  13,H  18)    -71.27  0.000032   -0.05    -71.32   
   174. D(C  19,C  16,C  13,H  17)    169.56  0.000005   -0.04    169.52   
   175. D(H  20,C  16,C  13,H  18)    168.15  0.000039   -0.06    168.09   
   176. D(C  19,C  16,C  13,C  12)     48.93 -0.000000   -0.04     48.89   
   177. D(C  23,C  19,C  16,H  20)    -80.20 -0.000006    0.04    -80.16   
   178. D(C   8,C  19,C  16,H  21)   -144.51 -0.000005    0.04   -144.47   
   179. D(C   8,C  19,C  16,H  20)     99.48 -0.000007    0.05     99.53   
   180. D(C   8,C  19,C  16,C  13)    -21.49 -0.000005    0.04    -21.45   
   181. D(C  23,C  19,C   8,N   9)    179.62  0.000000    0.00    179.62   
   182. D(C  23,C  19,C   8,C   5)     -0.68 -0.000001   -0.00     -0.68   
   183. D(C  23,C  19,C  16,C  13)    158.83 -0.000003    0.03    158.87   
   184. D(C  16,C  19,C   8,N   9)     -0.06  0.000002   -0.01     -0.07   
   185. D(C  16,C  19,C   8,C   5)    179.64  0.000001   -0.01    179.63   
   186. D(H  40,C  22,C   5,C   8)   -179.21  0.000002    0.00   -179.21   
   187. D(H  40,C  22,C   5,C   2)      1.18 -0.000000   -0.01      1.17   
   188. D(C  24,C  22,C   5,C   8)      1.22 -0.000000    0.00      1.22   
   189. D(C  24,C  22,C   5,C   2)   -178.39 -0.000002   -0.00   -178.39   
   190. D(O  25,C  23,C  19,C   8)   -178.58  0.000005   -0.01   -178.59   
   191. D(C  24,C  23,C  19,C  16)   -178.77 -0.000001    0.01   -178.76   
   192. D(C  24,C  23,C  19,C   8)      1.55  0.000001   -0.00      1.55   
   193. D(O  25,C  23,C  19,C  16)      1.10  0.000003    0.00      1.10   
   194. D(C  27,C  24,C  23,O  25)     -0.70 -0.000007    0.01     -0.69   
   195. D(C  27,C  24,C  23,C  19)    179.16 -0.000003    0.00    179.17   
   196. D(C  22,C  24,C  23,O  25)    179.11 -0.000004    0.02    179.13   
   197. D(C  22,C  24,C  23,C  19)     -1.02 -0.000000    0.01     -1.01   
   198. D(C  27,C  24,C  22,H  40)     -0.18  0.000002   -0.00     -0.19   
   199. D(C  27,C  24,C  22,C   5)    179.39  0.000004   -0.00    179.38   
   200. D(C  23,C  24,C  22,H  40)   -179.99 -0.000001   -0.01   -179.99   
   201. D(C  23,C  24,C  22,C   5)     -0.42  0.000000   -0.01     -0.43   
   202. D(C  26,O  25,C  23,C  24)      1.93 -0.000015    0.02      1.95   
   203. D(C  26,O  25,C  23,C  19)   -177.94 -0.000018    0.03   -177.91   
   204. D(O  29,C  26,O  25,C  23)    177.04 -0.000033    0.02    177.06   
   205. D(C  28,C  26,O  25,C  23)     -1.83  0.000035   -0.05     -1.88   
   206. D(H  41,C  27,C  24,C  23)    176.21  0.000002    0.02    176.22   
   207. D(H  41,C  27,C  24,C  22)     -3.59 -0.000002    0.01     -3.58   
   208. D(C  28,C  27,C  24,C  23)     -0.53  0.000008   -0.02     -0.55   
   209. D(C  28,C  27,C  24,C  22)    179.67  0.000004   -0.02    179.65   
   210. D(C  30,C  28,C  27,H  41)      5.18  0.000012   -0.01      5.17   
   211. D(C  30,C  28,C  27,C  24)   -178.17  0.000004    0.03   -178.15   
   212. D(C  26,C  28,C  27,H  41)   -176.06  0.000021   -0.05   -176.10   
   213. D(C  26,C  28,C  27,C  24)      0.60  0.000013   -0.01      0.58   
   214. D(C  30,C  28,C  26,O  29)      0.64  0.000057   -0.07      0.57   
   215. D(C  30,C  28,C  26,O  25)    179.32 -0.000022    0.01    179.33   
   216. D(C  27,C  28,C  26,O  29)   -178.15  0.000046   -0.04   -178.18   
   217. D(C  27,C  28,C  26,O  25)      0.54 -0.000033    0.05      0.58   
   218. D(C  32,C  30,C  28,C  27)     18.11  0.000005   -0.02     18.09   
   219. D(C  32,C  30,C  28,C  26)   -160.65 -0.000005    0.02   -160.62   
   220. D(C  31,C  30,C  28,C  27)   -160.50 -0.000005    0.02   -160.48   
   221. D(C  31,C  30,C  28,C  26)     20.74 -0.000015    0.06     20.80   
   222. D(H  39,C  31,C  30,C  32)   -179.11 -0.000007    0.02   -179.10   
   223. D(H  39,C  31,C  30,C  28)     -0.45  0.000003   -0.02     -0.46   
   224. D(C  35,C  31,C  30,C  32)     -0.09 -0.000010    0.03     -0.06   
   225. D(C  35,C  31,C  30,C  28)    178.57 -0.000001   -0.01    178.57   
   226. D(H  36,C  32,C  30,C  31)   -178.08  0.000005   -0.02   -178.10   
   227. D(H  36,C  32,C  30,C  28)      3.19 -0.000003    0.01      3.20   
   228. D(N  33,C  32,C  30,C  31)     -0.32  0.000015   -0.04     -0.36   
   229. D(N  33,C  32,C  30,C  28)   -179.06  0.000008   -0.01   -179.06   
   230. D(C  34,N  33,C  32,H  36)    178.44  0.000001    0.00    178.45   
   231. D(C  34,N  33,C  32,C  30)      0.60 -0.000010    0.02      0.62   
   232. D(H  38,C  34,N  33,C  32)    179.42  0.000005   -0.01    179.41   
   233. D(C  35,C  34,N  33,C  32)     -0.47 -0.000002    0.01     -0.46   
   234. D(H  37,C  35,C  34,H  38)     -0.41 -0.000003    0.01     -0.40   
   235. D(H  37,C  35,C  34,N  33)    179.48  0.000004   -0.01    179.46   
   236. D(C  31,C  35,C  34,H  38)   -179.81 -0.000001    0.00   -179.80   
   237. D(C  31,C  35,C  34,N  33)      0.08  0.000006   -0.02      0.06   
   238. D(H  37,C  35,C  31,H  39)     -0.18 -0.000001    0.00     -0.17   
   239. D(H  37,C  35,C  31,C  30)   -179.19  0.000003   -0.01   -179.20   
   240. D(C  34,C  35,C  31,H  39)    179.22 -0.000003    0.01    179.23   
   241. D(C  34,C  35,C  31,C  30)      0.20  0.000001   -0.00      0.20   
    ----------------------------------------------------------------------------

Geometry step timings:
Preparation and reading OPT file:      0.001 s ( 4.049 %)
Internal coordinates            :      0.000 s ( 0.088 %)
B/P matrices and projection     :      0.004 s (14.601 %)
Hessian update/contruction      :      0.010 s (37.320 %)
Making the step                 :      0.002 s ( 8.941 %)
Converting the step to Cartesian:      0.000 s ( 1.078 %)
Storing new data                :      0.001 s ( 4.849 %)
Checking convergence            :      0.000 s ( 0.038 %)
Final printing                  :      0.008 s (29.027 %)
Total time                      :      0.026 s
                 *******************************************************
                 *** FINAL ENERGY EVALUATION AT THE STATIONARY POINT ***
                 ***               (AFTER    5 CYCLES)               ***
                 *******************************************************
---------------------------------
CARTESIAN COORDINATES (ANGSTROEM)
---------------------------------
  C     -6.554248   -1.483656   -0.139173
  C     -6.527460   -2.586921   -1.180763
  C     -5.560947   -3.674923   -0.735172
  H     -6.212850   -2.170365   -2.141131
  H     -7.535234   -2.984623   -1.302813
  C     -4.216839   -3.091160   -0.395010
  H     -5.443051   -4.438287   -1.505527
  H     -5.970693   -4.178484    0.147945
  C     -4.110935   -1.731799    0.030836
  N     -5.224114   -0.942749    0.106710
  H     -6.964334   -1.869979    0.806073
  H     -7.188603   -0.655526   -0.453724
  C     -5.164687    0.385555    0.699665
  C     -3.862982    1.082949    0.353122
  H     -5.266988    0.297963    1.791849
  H     -6.024197    0.945576    0.334492
  C     -2.686395    0.236638    0.816877
  H     -3.842752    2.063180    0.829759
  H     -3.815365    1.235431   -0.727916
  C     -2.835362   -1.191489    0.372997
  H     -2.620743    0.265008    1.910704
  H     -1.746127    0.640402    0.443196
  C     -3.077166   -3.855394   -0.480764
  C     -1.732621   -2.021582    0.291869
  C     -1.799849   -3.356996   -0.139175
  O     -0.527777   -1.474581    0.657473
  C      0.675227   -2.176166    0.587532
  C     -0.606557   -4.119934   -0.203526
  C      0.635671   -3.552822    0.146568
  O      1.655694   -1.512738    0.899731
  C      1.862519   -4.310185    0.046526
  C      3.064435   -3.991976    0.719771
  C      1.905096   -5.485210   -0.753024
  N      2.971003   -6.262845   -0.900297
  C      4.090985   -5.932379   -0.242662
  C      4.169972   -4.804458    0.573617
  H      1.032828   -5.777460   -1.323903
  H      5.091178   -4.577270    1.094635
  H      4.944568   -6.588288   -0.371336
  H      3.107304   -3.124330    1.356944
  H     -3.155545   -4.882745   -0.816118
  H     -0.680738   -5.160730   -0.476399

----------------------------
CARTESIAN COORDINATES (A.U.)
----------------------------
  NO LB      ZA    FRAG     MASS         X           Y           Z
   0 C     6.0000    0    12.011  -12.385733   -2.803704   -0.262998
   1 C     6.0000    0    12.011  -12.335112   -4.888571   -2.231318
   2 C     6.0000    0    12.011  -10.508668   -6.944599   -1.389275
   3 H     1.0000    0     1.008  -11.740586   -4.101396   -4.046152
   4 H     1.0000    0     1.008  -14.239529   -5.640120   -2.461959
   5 C     6.0000    0    12.011   -7.968670   -5.841445   -0.746461
   6 H     1.0000    0     1.008  -10.285876   -8.387147   -2.845034
   7 H     1.0000    0     1.008  -11.282975   -7.896190    0.279576
   8 C     6.0000    0    12.011   -7.768542   -3.272626    0.058271
   9 N     7.0000    0    14.007   -9.872145   -1.781538    0.201653
  10 H     1.0000    0     1.008  -13.160684   -3.533749    1.523257
  11 H     1.0000    0     1.008  -13.584490   -1.238764   -0.857413
  12 C     6.0000    0    12.011   -9.759844    0.728593    1.322175
  13 C     6.0000    0    12.011   -7.299978    2.046477    0.667303
  14 H     1.0000    0     1.008   -9.953165    0.563069    3.386105
  15 H     1.0000    0     1.008  -11.384083    1.786879    0.632098
  16 C     6.0000    0    12.011   -5.076551    0.447180    1.543674
  17 H     1.0000    0     1.008   -7.261749    3.898846    1.568018
  18 H     1.0000    0     1.008   -7.209995    2.334626   -1.375561
  19 C     6.0000    0    12.011   -5.358058   -2.251587    0.704863
  20 H     1.0000    0     1.008   -4.952487    0.500792    3.610707
  21 H     1.0000    0     1.008   -3.299703    1.210184    0.837518
  22 C     6.0000    0    12.011   -5.815001   -7.285639   -0.908512
  23 C     6.0000    0    12.011   -3.274180   -3.820236    0.551553
  24 C     6.0000    0    12.011   -3.401222   -6.343803   -0.263003
  25 O     8.0000    0    15.999   -0.997354   -2.786554    1.242444
  26 C     6.0000    0    12.011    1.275993   -4.112357    1.110275
  27 C     6.0000    0    12.011   -1.146227   -7.785546   -0.384608
  28 C     6.0000    0    12.011    1.201244   -6.713861    0.276974
  29 O     8.0000    0    15.999    3.128808   -2.858660    1.700246
  30 C     6.0000    0    12.011    3.519652   -8.145070    0.087922
  31 C     6.0000    0    12.011    5.790943   -7.543741    1.360171
  32 C     6.0000    0    12.011    3.600110  -10.365546   -1.423008
  33 N     7.0000    0    14.007    5.614383  -11.835061   -1.701315
  34 C     6.0000    0    12.011    7.730842  -11.210572   -0.458565
  35 C     6.0000    0    12.011    7.880105   -9.079111    1.083978
  36 H     1.0000    0     1.008    1.951762  -10.917817   -2.501814
  37 H     1.0000    0     1.008    9.620933   -8.649786    2.068560
  38 H     1.0000    0     1.008    9.343880  -12.450061   -0.701724
  39 H     1.0000    0     1.008    5.871954   -5.904129    2.564252
  40 H     1.0000    0     1.008   -5.963116   -9.227051   -1.542239
  41 H     1.0000    0     1.008   -1.286409   -9.752366   -0.900263

--------------------------------
INTERNAL COORDINATES (ANGSTROEM)
--------------------------------
 C      0   0   0     0.000000000000     0.00000000     0.00000000
 C      1   0   0     1.517504231287     0.00000000     0.00000000
 C      2   1   0     1.521988067758   109.26737980     0.00000000
 H      2   1   3     1.093071532517   109.33404112   239.19883630
 H      2   1   3     1.090262462165   109.00936952   121.51086557
 C      3   2   1     1.504366733522   110.86617637   307.67286929
 H      3   2   1     1.090903337808   111.22987834   185.51208858
 H      3   2   1     1.096066107110   109.08162686    68.04877817
 C      6   3   2     1.428433158261   120.19426897    26.13473172
 N      9   6   3     1.366573811122   120.37336020   358.65858303
 H      1   2   3     1.100411373150   109.93410373   295.23202912
 H      1   2   3     1.089563754663   111.38931983   176.39499183
 C     10   9   6     1.455856830204   121.07557717   171.98984787
 C     13  10   9     1.516867595065   111.18977933    37.58563919
 H     13  10   9     1.100456475430   109.13598028   275.98251763
 H     13  10   9     1.088913183053   107.48329184   159.70913860
 C     14  13  10     1.521731968562   109.76698010   302.69612626
 H     14  13  10     1.090158752163   109.23460118   181.22416347
 H     14  13  10     1.092776300594   109.12027456    63.56232076
 C      9   6   3     1.426918587085   119.87488353   178.96553424
 H     17  14  13     1.096162234913   109.63458479   288.30053857
 H     17  14  13     1.089388235023   110.89684869   171.19906540
 C      6   3   2     1.374867872101   120.71878076   205.74718591
 C     20   9   6     1.382633172901   118.13615888   359.31892350
 C     24  20   9     1.404866342642   123.40323094     1.54517010
 O     24  20   9     1.372780738625   116.43262116   181.40829089
 C     26  24  20     1.394392494074   122.91254003   182.08581017
 C     25  24  20     1.417800904332   119.02299804   179.16681460
 C     28  25  24     1.409720832251   120.92421600   359.45381688
 O     27  26  24     1.224304276638   113.92118163   177.05700208
 C     29  28  25     1.445255725685   121.33359148   181.85441241
 C     31  29  28     1.413901276557   124.79970253   199.51951633
 C     31  29  28     1.421892173879   119.82777588    18.09353774
 N     33  31  29     1.327615430997   124.78243878   180.93650044
 C     34  33  31     1.340168101475   118.17030807     0.61882880
 C     32  31  29     1.379746650666   119.87838762   178.56791513
 H     33  31  29     1.082665396723   119.69926586     3.19566991
 H     36  32  31     1.082449266705   120.48576902   180.79967548
 H     35  34  33     1.084148369662   116.77892015   179.41140306
 H     32  31  29     1.077327972925   119.78191415   359.53578845
 H     23   6   3     1.083538582341   119.10279207     1.17252318
 H     28  25  24     1.078526561000   118.22161304   176.22272743

---------------------------
INTERNAL COORDINATES (A.U.)
---------------------------
 C      0   0   0     0.000000000000     0.00000000     0.00000000
 C      1   0   0     2.867667404199     0.00000000     0.00000000
 C      2   1   0     2.876140627159   109.26737980     0.00000000
 H      2   1   3     2.065605841242   109.33404112   239.19883630
 H      2   1   3     2.060297467586   109.00936952   121.51086557
 C      3   2   1     2.842841131338   110.86617637   307.67286929
 H      3   2   1     2.061508547038   111.22987834   185.51208858
 H      3   2   1     2.071264767112   109.08162686    68.04877817
 C      6   3   2     2.699347469726   120.19426897    26.13473172
 N      9   6   3     2.582450244810   120.37336020   358.65858303
 H      1   2   3     2.079476129905   109.93410373   295.23202912
 H      1   2   3     2.058977101761   111.38931983   176.39499183
 C     10   9   6     2.751170699285   121.07557717   171.98984787
 C     13  10   9     2.866464336092   111.18977933    37.58563919
 H     13  10   9     2.079561360863   109.13598028   275.98251763
 H     13  10   9     2.057747699586   107.48329184   159.70913860
 C     14  13  10     2.875656669815   109.76698010   302.69612626
 H     14  13  10     2.060101484085   109.23460118   181.22416347
 H     14  13  10     2.065047933763   109.12027456    63.56232076
 C      9   6   3     2.696485344993   119.87488353   178.96553424
 H     17  14  13     2.071446422333   109.63458479   288.30053857
 H     17  14  13     2.058645417709   110.89684869   171.19906540
 C      6   3   2     2.598123748599   120.71878076   205.74718591
 C     20   9   6     2.612798040458   118.13615888   359.31892350
 C     24  20   9     2.654812642357   123.40323094     1.54517010
 O     24  20   9     2.594179637923   116.43262116   181.40829089
 C     26  24  20     2.635019936995   122.91254003   182.08581017
 C     25  24  20     2.679255421613   119.02299804   179.16681460
 C     28  25  24     2.663986298238   120.92421600   359.45381688
 O     27  26  24     2.313599787434   113.92118163   177.05700208
 C     29  28  25     2.731137515026   121.33359148   181.85441241
 C     31  29  28     2.671886193093   124.79970253   199.51951633
 C     31  29  28     2.686986800597   119.82777588    18.09353774
 N     33  31  29     2.508829575753   124.78243878   180.93650044
 C     34  33  31     2.532550685204   118.17030807     0.61882880
 C     32  31  29     2.607343303954   119.87838762   178.56791513
 H     33  31  29     2.045941094480   119.69926586     3.19566991
 H     36  32  31     2.045532667936   120.48576902   180.79967548
 H     35  34  33     2.048743507198   116.77892015   179.41140306
 H     32  31  29     2.035854825240   119.78191415   359.53578845
 H     23   6   3     2.047591176163   119.10279207     1.17252318
 H     28  25  24     2.038119828450   118.22161304   176.22272743

---------------------
BASIS SET INFORMATION
---------------------
There are 4 groups of distinct atoms

 Group   1 Type C   : 11s6p2d contracted to 5s3p2d pattern {62111/411/11}
 Group   2 Type H   : 5s1p contracted to 3s1p pattern {311/1}
 Group   3 Type N   : 11s6p2d contracted to 5s3p2d pattern {62111/411/11}
 Group   4 Type O   : 11s6p2d contracted to 5s3p2d pattern {62111/411/11}

Atom   0C    basis set group =>   1
Atom   1C    basis set group =>   1
Atom   2C    basis set group =>   1
Atom   3H    basis set group =>   2
Atom   4H    basis set group =>   2
Atom   5C    basis set group =>   1
Atom   6H    basis set group =>   2
Atom   7H    basis set group =>   2
Atom   8C    basis set group =>   1
Atom   9N    basis set group =>   3
Atom  10H    basis set group =>   2
Atom  11H    basis set group =>   2
Atom  12C    basis set group =>   1
Atom  13C    basis set group =>   1
Atom  14H    basis set group =>   2
Atom  15H    basis set group =>   2
Atom  16C    basis set group =>   1
Atom  17H    basis set group =>   2
Atom  18H    basis set group =>   2
Atom  19C    basis set group =>   1
Atom  20H    basis set group =>   2
Atom  21H    basis set group =>   2
Atom  22C    basis set group =>   1
Atom  23C    basis set group =>   1
Atom  24C    basis set group =>   1
Atom  25O    basis set group =>   4
Atom  26C    basis set group =>   1
Atom  27C    basis set group =>   1
Atom  28C    basis set group =>   1
Atom  29O    basis set group =>   4
Atom  30C    basis set group =>   1
Atom  31C    basis set group =>   1
Atom  32C    basis set group =>   1
Atom  33N    basis set group =>   3
Atom  34C    basis set group =>   1
Atom  35C    basis set group =>   1
Atom  36H    basis set group =>   2
Atom  37H    basis set group =>   2
Atom  38H    basis set group =>   2
Atom  39H    basis set group =>   2
Atom  40H    basis set group =>   2
Atom  41H    basis set group =>   2
---------------------------------
AUXILIARY/J BASIS SET INFORMATION
---------------------------------
There are 4 groups of distinct atoms

 Group   1 Type C   : 12s5p4d2f1g contracted to 6s4p3d1f1g pattern {711111/2111/211/2/1}
 Group   2 Type H   : 5s2p1d contracted to 3s1p1d pattern {311/2/1}
 Group   3 Type N   : 12s5p4d2f1g contracted to 6s4p3d1f1g pattern {711111/2111/211/2/1}
 Group   4 Type O   : 12s5p4d2f1g contracted to 6s4p3d1f1g pattern {711111/2111/211/2/1}

Atom   0C    basis set group =>   1
Atom   1C    basis set group =>   1
Atom   2C    basis set group =>   1
Atom   3H    basis set group =>   2
Atom   4H    basis set group =>   2
Atom   5C    basis set group =>   1
Atom   6H    basis set group =>   2
Atom   7H    basis set group =>   2
Atom   8C    basis set group =>   1
Atom   9N    basis set group =>   3
Atom  10H    basis set group =>   2
Atom  11H    basis set group =>   2
Atom  12C    basis set group =>   1
Atom  13C    basis set group =>   1
Atom  14H    basis set group =>   2
Atom  15H    basis set group =>   2
Atom  16C    basis set group =>   1
Atom  17H    basis set group =>   2
Atom  18H    basis set group =>   2
Atom  19C    basis set group =>   1
Atom  20H    basis set group =>   2
Atom  21H    basis set group =>   2
Atom  22C    basis set group =>   1
Atom  23C    basis set group =>   1
Atom  24C    basis set group =>   1
Atom  25O    basis set group =>   4
Atom  26C    basis set group =>   1
Atom  27C    basis set group =>   1
Atom  28C    basis set group =>   1
Atom  29O    basis set group =>   4
Atom  30C    basis set group =>   1
Atom  31C    basis set group =>   1
Atom  32C    basis set group =>   1
Atom  33N    basis set group =>   3
Atom  34C    basis set group =>   1
Atom  35C    basis set group =>   1
Atom  36H    basis set group =>   2
Atom  37H    basis set group =>   2
Atom  38H    basis set group =>   2
Atom  39H    basis set group =>   2
Atom  40H    basis set group =>   2
Atom  41H    basis set group =>   2
---------------------------------
AUXILIARY/C BASIS SET INFORMATION
---------------------------------
There are 4 groups of distinct atoms

 Group   1 Type C   : 8s6p5d3f1g contracted to 8s6p4d3f1g pattern {11111111/111111/2111/111/1}
 Group   2 Type H   : 4s3p2d contracted to 4s2p1d pattern {1111/21/2}
 Group   3 Type N   : 8s6p5d3f1g contracted to 8s6p4d3f1g pattern {11111111/111111/2111/111/1}
 Group   4 Type O   : 8s6p5d3f1g contracted to 8s6p4d3f1g pattern {11111111/111111/2111/111/1}

Atom   0C    basis set group =>   1
Atom   1C    basis set group =>   1
Atom   2C    basis set group =>   1
Atom   3H    basis set group =>   2
Atom   4H    basis set group =>   2
Atom   5C    basis set group =>   1
Atom   6H    basis set group =>   2
Atom   7H    basis set group =>   2
Atom   8C    basis set group =>   1
Atom   9N    basis set group =>   3
Atom  10H    basis set group =>   2
Atom  11H    basis set group =>   2
Atom  12C    basis set group =>   1
Atom  13C    basis set group =>   1
Atom  14H    basis set group =>   2
Atom  15H    basis set group =>   2
Atom  16C    basis set group =>   1
Atom  17H    basis set group =>   2
Atom  18H    basis set group =>   2
Atom  19C    basis set group =>   1
Atom  20H    basis set group =>   2
Atom  21H    basis set group =>   2
Atom  22C    basis set group =>   1
Atom  23C    basis set group =>   1
Atom  24C    basis set group =>   1
Atom  25O    basis set group =>   4
Atom  26C    basis set group =>   1
Atom  27C    basis set group =>   1
Atom  28C    basis set group =>   1
Atom  29O    basis set group =>   4
Atom  30C    basis set group =>   1
Atom  31C    basis set group =>   1
Atom  32C    basis set group =>   1
Atom  33N    basis set group =>   3
Atom  34C    basis set group =>   1
Atom  35C    basis set group =>   1
Atom  36H    basis set group =>   2
Atom  37H    basis set group =>   2
Atom  38H    basis set group =>   2
Atom  39H    basis set group =>   2
Atom  40H    basis set group =>   2
Atom  41H    basis set group =>   2
------------------------------------------------------------------------------
                             ORCA STARTUP CALCULATIONS
                           -- RI-GTO INTEGRALS CHOSEN --
------------------------------------------------------------------------------
------------------------------------------------------------------------------
                   ___                                                        
                  /   \      - P O W E R E D   B Y -                         
                 /     \                                                     
                 |  |  |   _    _      __       _____    __    __             
                 |  |  |  | |  | |    /  \     |  _  \  |  |  /  |          
                  \  \/   | |  | |   /    \    | | | |  |  | /  /          
                 / \  \   | |__| |  /  /\  \   | |_| |  |  |/  /          
                |  |  |   |  __  | /  /__\  \  |    /   |      \           
                |  |  |   | |  | | |   __   |  |    \   |  |\   \          
                \     /   | |  | | |  |  |  |  | |\  \  |  | \   \       
                 \___/    |_|  |_| |__|  |__|  |_| \__\ |__|  \__/        
                                                                              
                      - O R C A' S   B I G   F R I E N D -                    
                                      &                                       
                       - I N T E G R A L  F E E D E R -                       
                                                                              
 v1 FN, 2020, v2 2021, v3 2022-2024                                           
------------------------------------------------------------------------------


----------------------
SHARK INTEGRAL PACKAGE
----------------------

Number of atoms                             ...     42
Number of basis functions                   ...    684
Number of shells                            ...    312
Maximum angular momentum                    ...      2
Integral batch strategy                     ... SHARK/LIBINT Hybrid
RI-J (if used) integral strategy            ... SPLIT-RIJ (Revised 2003 algorithm where possible)
Printlevel                                  ...      1
Contraction scheme used                     ... SEGMENTED contraction
Prescreening option                         ... SCHWARTZ
   Thresh                                   ... 2.500e-11
   Tcut                                     ... 2.500e-12
   Tpresel                                  ... 2.500e-12 
Coulomb Range Separation                    ... NOT USED
Exchange Range Separation                   ... NOT USED
Multipole approximations                    ... NOT USED
Finite Nucleus Model                        ... NOT USED
CABS basis                                  ... NOT available
Auxiliary Coulomb fitting basis             ... AVAILABLE
   # of basis functions in Aux-J            ...   1374
   # of shells in Aux-J                     ...    450
   Maximum angular momentum in Aux-J        ...      4
Auxiliary J/K fitting basis                 ... NOT available
Auxiliary Correlation fitting basis         ... AVAILABLE
   # of basis functions in Aux-C            ...   2094
   # of shells in Aux-C                     ...    654
   Maximum angular momentum in Aux-C        ...      4
Auxiliary 'external' fitting basis          ... NOT available

Checking pre-screening integrals            ... done (  0.0 sec) Dimension = 312
Check shell pair data                       ... done (  0.0 sec)
Shell pair information
Shell pair cut-off parameter TPreSel        ...   2.5e-12
Total number of shell pairs                 ...     48828
Shell pairs after pre-screening             ...     32413
Total number of primitive shell pairs       ...    159912
Primitive shell pairs kept                  ...     69768
          la=0 lb=0:   9551 shell pairs
          la=1 lb=0:  10757 shell pairs
          la=1 lb=1:   3024 shell pairs
          la=2 lb=0:   5320 shell pairs
          la=2 lb=1:   3005 shell pairs
          la=2 lb=2:    756 shell pairs

Calculating one electron integrals          ... done (  0.1 sec)
Calculating RI/J V-Matrix + Cholesky decomp.... done (  0.5 sec)
Calculating RI/C V-Matrix + Cholesky decomp.... done (  1.3 sec)
Calculating Nuclear repulsion               ... done (  0.0 sec) ENN=   1942.646153236671 Eh

Diagonalization of the overlap matrix:
Smallest eigenvalue                        ... 3.469e-06
Time for diagonalization                   ...    0.035 sec
Threshold for overlap eigenvalues          ... 1.000e-07
Number of eigenvalues below threshold      ... 0
Time for construction of square roots      ...    0.115 sec
Total time needed                          ...    0.177 sec

-------------------
DFT GRID GENERATION
-------------------

General Integration Accuracy     IntAcc      ... 4.388
Radial Grid Type                 RadialGrid  ... OptM3 with GC (2021)
Angular Grid (max. ang.)         AngularGrid ... 4 (Lebedev-302)
Angular grid pruning method      GridPruning ... 4 (adaptive)
Weight generation scheme         WeightScheme... mBecke (2022)
Basis function cutoff            BFCut       ... 1.0000e-11
Integration weight cutoff        WCut        ... 1.0000e-14
Partially contracted basis set               ... off
Rotationally invariant grid construction     ... off
Angular grids for H and He will be reduced by one unit

Total number of grid points                  ...   200227
Total number of batches                      ...     3148
Average number of points per batch           ...       63
Average number of grid points per atom       ...     4767

--------------------
COSX GRID GENERATION
--------------------

GRIDX 1
-------
General Integration Accuracy     IntAcc      ... 3.816
Radial Grid Type                 RadialGrid  ... OptM3 with GC (2021)
Angular Grid (max. ang.)         AngularGrid ... 1 (Lebedev-50)
Angular grid pruning method      GridPruning ... 4 (adaptive)
Weight generation scheme         WeightScheme... mBecke (2022)
Basis function cutoff            BFCut       ... 1.0000e-11
Integration weight cutoff        WCut        ... 1.0000e-14
Partially contracted basis set               ... on
Rotationally invariant grid construction     ... off
Angular grids for H and He will be reduced by one unit

Total number of grid points                  ...    25424
Total number of batches                      ...      226
Average number of points per batch           ...      112
Average number of grid points per atom       ...      605
UseSFitting                                  ... on

GRIDX 2
-------
General Integration Accuracy     IntAcc      ... 4.020
Radial Grid Type                 RadialGrid  ... OptM3 with GC (2021)
Angular Grid (max. ang.)         AngularGrid ... 2 (Lebedev-110)
Angular grid pruning method      GridPruning ... 4 (adaptive)
Weight generation scheme         WeightScheme... mBecke (2022)
Basis function cutoff            BFCut       ... 1.0000e-11
Integration weight cutoff        WCut        ... 1.0000e-14
Partially contracted basis set               ... on
Rotationally invariant grid construction     ... off
Angular grids for H and He will be reduced by one unit

Total number of grid points                  ...    55228
Total number of batches                      ...      453
Average number of points per batch           ...      121
Average number of grid points per atom       ...     1315
UseSFitting                                  ... on

GRIDX 3
-------
General Integration Accuracy     IntAcc      ... 4.338
Radial Grid Type                 RadialGrid  ... OptM3 with GC (2021)
Angular Grid (max. ang.)         AngularGrid ... 3 (Lebedev-194)
Angular grid pruning method      GridPruning ... 4 (adaptive)
Weight generation scheme         WeightScheme... mBecke (2022)
Basis function cutoff            BFCut       ... 1.0000e-11
Integration weight cutoff        WCut        ... 1.0000e-14
Partially contracted basis set               ... on
Rotationally invariant grid construction     ... off
Angular grids for H and He will be reduced by one unit

Total number of grid points                  ...   120901
Total number of batches                      ...      972
Average number of points per batch           ...      124
Average number of grid points per atom       ...     2879
UseSFitting                                  ... on
Initializing property integral containers    ... done (  0.0 sec)

SHARK setup successfully completed in   9.3 seconds

Maximum memory used throughout the entire STARTUP-calculation: 139.8 MB
-------------------------------------------------------------------------------
                                 ORCA GUESS
                   Start orbitals & Density for SCF / CASSCF
-------------------------------------------------------------------------------

------------
SCF SETTINGS
------------
Hamiltonian:
 Density Functional     Method          .... DFT(GTOs)
 Exchange Functional    Exchange        .... B88
   X-Alpha parameter    XAlpha          ....  0.666667
   Becke's b parameter  XBeta           ....  0.004200
 Correlation Functional Correlation     .... LYP
 LDA part of GGA corr.  LDAOpt          .... VWN-5
 Gradients option       PostSCFGGA      .... off
 Hybrid DFT is turned on
   Fraction HF Exchange ScalHFX         ....  0.200000
   Scaling of DF-GGA-X  ScalDFX         ....  0.720000
   Scaling of DF-GGA-C  ScalDFC         ....  0.810000
   Scaling of DF-LDA-C  ScalLDAC        ....  1.000000
   Perturbative correction              ....  0.000000
   NL short-range parameter             ....  4.800000
 RI-approximation to the Coulomb term is turned on
   Number of AuxJ basis functions       .... 1374
   RIJ-COSX (HFX calculated with COS-X)).... on


General Settings:
 Integral files         IntName         .... NMU-1
 Hartree-Fock type      HFTyp           .... RHF
 Total Charge           Charge          ....    0
 Multiplicity           Mult            ....    1
 Number of Electrons    NEL             ....  168
 Basis Dimension        Dim             ....  684
 Nuclear Repulsion      ENuc            ....   1942.6461532367 Eh

Convergence Acceleration:
 AO-DIIS                CNVDIIS         .... on
   Start iteration      DIISMaxIt       ....    12
   Startup error        DIISStart       ....  0.200000
   # of expansion vecs  DIISMaxEq       ....     5
   Bias factor          DIISBfac        ....   1.050
   Max. coefficient     DIISMaxC        ....  10.000
 MO-DIIS                CNVKDIIS        .... off
 Trust-Rad. Augm. Hess. CNVTRAH         .... auto
   Auto Start mean grad. ratio tolernc. ....  1.125000
   Auto Start start iteration           ....     1
   Auto Start num. interpolation iter.  ....    10
   Max. Number of Micro iterations      ....    24
   Max. Number of Macro iterations      .... Maxiter - #DIIS iter
   Number of Davidson start vectors     ....     2
   Converg. threshold    (grad. norm)   ....   1.000e-05
   Grad. Scal. Fac. for Micro threshold ....   0.100
   Minimum threshold for Micro iter.    ....   1.000e-02
   NR start threshold (gradient norm)   ....   1.000e-04
   Initial trust radius                 ....   0.400
   Minimum AH scaling param. (alpha)    ....   1.000
   Maximum AH scaling param. (alpha)    .... 1000.000
   Quad. conv. algorithm                .... NR
   White noise on init. David. guess    .... on
   Maximum white noise                  ....   0.010
   Pseudo random numbers                .... off
   Inactive MOs                         .... canonical
   Orbital update algorithm             .... Taylor
   Preconditioner                       .... Diag
   Full preconditioner red. dimension   ....   250
 SOSCF                  CNVSOSCF        .... on
   Start iteration      SOSCFMaxIt      ....   150
   Startup grad/error   SOSCFStart      ....  0.003300
   Hessian update       SOSCFHessUp     .... L-BFGS
 Level Shifting         CNVShift        .... on
   Level shift para.    LevelShift      ....    0.2500
   Turn off err/grad.   ShiftErr        ....    0.0010
 Zerner damping         CNVZerner       .... off
 Static damping         CNVDamp         .... on
   Fraction old density DampFac         ....    0.7000
   Max. Damping (<1)    DampMax         ....    0.9800
   Min. Damping (>=0)   DampMin         ....    0.0000
   Turn off err/grad.   DampErr         ....    0.1000

SCF Procedure:
 Maximum # iterations   MaxIter         ....   125
 SCF integral mode      SCFMode         .... Direct
   Integral package                     .... SHARK and LIBINT hybrid scheme
 Reset frequency        DirectResetFreq ....    20
 Integral Threshold     Thresh          ....  2.500e-11 Eh
 Primitive CutOff       TCut            ....  2.500e-12 Eh

Convergence Tolerance:
 Convergence Check Mode ConvCheckMode   .... Total+1el-Energy
 Convergence forced     ConvForced      .... 1
 Energy Change          TolE            ....  1.000e-08 Eh
 1-El. energy change                    ....  1.000e-05 Eh
 Orbital Gradient       TolG            ....  1.000e-05
 Orbital Rotation angle TolX            ....  1.000e-05
 DIIS Error             TolErr          ....  5.000e-07

---------------------
INITIAL GUESS: MOREAD
---------------------
Guess MOs are being read from file: NMU-1.gbw
Input Geometry matches current geometry (good)
Input basis set matches current basis set (good)
Occupation numbers will be reassigned to an Aufbau configuration
MOs were renormalized
MOs were reorthogonalized (Cholesky)
                      ------------------
                      INITIAL GUESS DONE (   0.4 sec)
                      ------------------
             **** ENERGY FILE WAS UPDATED (NMU-1.en.tmp) ****
Finished Guess after   1.5 sec
Maximum memory used throughout the entire GUESS-calculation: 88.9 MB

-------------------------------------------------------------------------------------------
                                      ORCA LEAN-SCF
                              memory conserving SCF solver
-------------------------------------------------------------------------------------------

--------------------
CPCM SOLVATION MODEL
--------------------
CPCM parameters:
  Epsilon                                         ...      80.1510
  Refrac                                          ...       1.3328
  Rsolv                                           ...       1.3000
  Surface type                                    ... GAUSSIAN VDW
  Discretization scheme                           ... Constant charge density
    Threshold for H atoms                         ...       5.0000 (charges/Ang^2)
    Threshold for non-H atoms                     ...       5.0000 (charges/Ang^2)
  Epsilon function type                           ...         CPCM
Solvent:                                          ... WATER
Radii:
  Scheme                                          ... Element-dependent radii
  Radius for C  used is    3.8550 Bohr (=   2.0400 Ang.)
  Radius for H  used is    2.4944 Bohr (=   1.3200 Ang.)
  Radius for N  used is    3.5149 Bohr (=   1.8600 Ang.)
  Radius for O  used is    3.4469 Bohr (=   1.8240 Ang.)
Calculating surface                               ...        done! (  0.0s)
Cavity surface points                             ...         3529
Cavity Volume                                     ...    2460.4118
Cavity Surface-area                               ...    1212.4447
Calculating surface distance matrix               ...        done! (  0.0s)
Performing Cholesky decomposition & store         ...        done! (  1.8s)
Overall time for CPCM initialization              ...                 1.8s

----------------------------------------D-I-I-S--------------------------------------------
Iteration    Energy (Eh)           Delta-E    RMSDP     MaxDP     DIISErr   Damp  Time(sec)
-------------------------------------------------------------------------------------------
               ***  Starting incremental Fock matrix formation  ***
                              *** Initializing SOSCF ***
---------------------------------------S-O-S-C-F--------------------------------------
Iteration    Energy (Eh)           Delta-E    RMSDP     MaxDP     MaxGrad    Time(sec)
--------------------------------------------------------------------------------------
    1    -1032.6975696548599899     0.00e+00  7.63e-05  6.88e-03  8.98e-06    39.4
               *** Restarting incremental Fock matrix formation ***
    2    -1032.6975709228975120    -1.27e-06  1.43e-05  1.20e-03  1.21e-05    39.9
    3    -1032.6975710310455270    -1.08e-07  4.14e-06  2.77e-04  1.14e-05    22.5
    4    -1032.6975710066092233     2.44e-08  2.92e-06  2.36e-04  2.15e-05    20.0
    5    -1032.6975710495969452    -4.30e-08  2.18e-06  1.47e-04  2.61e-06    18.3
    6    -1032.6975710600224829    -1.04e-08  2.17e-06  2.15e-04  3.35e-06    15.6
    7    -1032.6975710442432046     1.58e-08  2.22e-06  2.31e-04  2.59e-07    13.6
                  *** Gradient check signals convergence ***

               *****************************************************
               *                     SUCCESS                       *
               *           SCF CONVERGED AFTER   7 CYCLES          *
               *****************************************************

Recomputing exchange energy using gridx3       ... done (   62.708 sec)
Old exchange energy                            :    -27.996032722 Eh
New exchange energy                            :    -27.996019734 Eh
Exchange energy change after final integration :      0.000012987 Eh
Total energy after final integration           :  -1032.697558057 Eh
             **** ENERGY FILE WAS UPDATED (NMU-1.en.tmp) ****

----------------
TOTAL SCF ENERGY
----------------

Total Energy       :      -1032.69755805721002 Eh          -28101.12919 eV

Components:
Nuclear Repulsion  :       1942.64615323667135 Eh           52862.08929 eV
Electronic Energy  :      -2975.31557452053630 Eh          -80962.45283 eV
One Electron Energy:      -5261.35573760987972 Eh         -143168.76818 eV
Two Electron Energy:       2286.04016308934342 Eh           62206.31535 eV
CPCM Dielectric    :         -0.02814976037823 Eh              -0.76599 eV

Virial components:
Potential Energy   :      -2060.87293628951556 Eh          -56079.20361 eV
Kinetic Energy     :       1028.17537823230577 Eh           27978.07442 eV
Virial Ratio       :          2.00439825726296

DFT components:
N(Alpha)           :       83.999947173510 electrons
N(Beta)            :       83.999947173510 electrons
N(Total)           :      167.999894347021 electrons
E(X)               :     -111.267183892271 Eh       
E(C)               :       -6.755383034122 Eh       
E(XC)              :     -118.022566926393 Eh       

CPCM Solvation Model Properties:
Surface-charge          :         -0.03915411537014
Corrected charge        :         -0.00000000000000
Outlying charge corr.   :          0.00007901670229 Eh               0.00215 eV
Free-energy (cav+disp)  :  This term is not implemented in the current solvation scheme

---------------
SCF CONVERGENCE
---------------

  Last Energy change         ...   -1.5779e-08  Tolerance :   1.0000e-08
  Last MAX-Density change    ...    2.3086e-04  Tolerance :   1.0000e-07
  Last RMS-Density change    ...    2.2206e-06  Tolerance :   5.0000e-09
  Last DIIS Error            ...    2.5895e-04  Tolerance :   5.0000e-07
  Last Orbital Gradient      ...    2.5856e-07  Tolerance :   1.0000e-05
  Last Orbital Rotation      ...    1.0454e-06  Tolerance :   1.0000e-05


----------------
ORBITAL ENERGIES
----------------

  NO   OCC          E(Eh)            E(eV) 
   0   2.0000     -19.190981      -522.2131 
   1   2.0000     -19.109503      -519.9960 
   2   2.0000     -14.343330      -390.3019 
   3   2.0000     -14.317530      -389.5998 
   4   2.0000     -10.305987      -280.4402 
   5   2.0000     -10.243969      -278.7526 
   6   2.0000     -10.228098      -278.3207 
   7   2.0000     -10.207038      -277.7476 
   8   2.0000     -10.206432      -277.7311 
   9   2.0000     -10.202998      -277.6377 
  10   2.0000     -10.199384      -277.5393 
  11   2.0000     -10.199074      -277.5309 
  12   2.0000     -10.197189      -277.4796 
  13   2.0000     -10.196625      -277.4643 
  14   2.0000     -10.185257      -277.1549 
  15   2.0000     -10.182869      -277.0899 
  16   2.0000     -10.180497      -277.0254 
  17   2.0000     -10.179839      -277.0075 
  18   2.0000     -10.178705      -276.9767 
  19   2.0000     -10.177254      -276.9372 
  20   2.0000     -10.169647      -276.7302 
  21   2.0000     -10.168889      -276.7095 
  22   2.0000     -10.166245      -276.6376 
  23   2.0000     -10.166003      -276.6310 
  24   2.0000      -1.114764       -30.3343 
  25   2.0000      -1.027050       -27.9475 
  26   2.0000      -0.968272       -26.3480 
  27   2.0000      -0.946366       -25.7519 
  28   2.0000      -0.867184       -23.5973 
  29   2.0000      -0.841317       -22.8934 
  30   2.0000      -0.826696       -22.4955 
  31   2.0000      -0.801374       -21.8065 
  32   2.0000      -0.779297       -21.2057 
  33   2.0000      -0.771131       -20.9835 
  34   2.0000      -0.761960       -20.7340 
  35   2.0000      -0.741364       -20.1735 
  36   2.0000      -0.689749       -18.7690 
  37   2.0000      -0.681846       -18.5540 
  38   2.0000      -0.660123       -17.9629 
  39   2.0000      -0.640905       -17.4399 
  40   2.0000      -0.635946       -17.3050 
  41   2.0000      -0.627861       -17.0850 
  42   2.0000      -0.614374       -16.7180 
  43   2.0000      -0.595339       -16.2000 
  44   2.0000      -0.561798       -15.2873 
  45   2.0000      -0.536816       -14.6075 
  46   2.0000      -0.530343       -14.4314 
  47   2.0000      -0.525405       -14.2970 
  48   2.0000      -0.508043       -13.8246 
  49   2.0000      -0.492614       -13.4047 
  50   2.0000      -0.481314       -13.0972 
  51   2.0000      -0.475774       -12.9465 
  52   2.0000      -0.472250       -12.8506 
  53   2.0000      -0.468780       -12.7562 
  54   2.0000      -0.462630       -12.5888 
  55   2.0000      -0.450821       -12.2675 
  56   2.0000      -0.446701       -12.1554 
  57   2.0000      -0.435276       -11.8445 
  58   2.0000      -0.431194       -11.7334 
  59   2.0000      -0.429061       -11.6753 
  60   2.0000      -0.420443       -11.4408 
  61   2.0000      -0.415301       -11.3009 
  62   2.0000      -0.407513       -11.0890 
  63   2.0000      -0.405060       -11.0222 
  64   2.0000      -0.402871       -10.9627 
  65   2.0000      -0.399007       -10.8575 
  66   2.0000      -0.396235       -10.7821 
  67   2.0000      -0.376256       -10.2384 
  68   2.0000      -0.369208       -10.0467 
  69   2.0000      -0.362031        -9.8514 
  70   2.0000      -0.357860        -9.7379 
  71   2.0000      -0.350806        -9.5459 
  72   2.0000      -0.342036        -9.3073 
  73   2.0000      -0.339261        -9.2318 
  74   2.0000      -0.334985        -9.1154 
  75   2.0000      -0.321666        -8.7530 
  76   2.0000      -0.317433        -8.6378 
  77   2.0000      -0.298915        -8.1339 
  78   2.0000      -0.289746        -7.8844 
  79   2.0000      -0.281955        -7.6724 
  80   2.0000      -0.263987        -7.1835 
  81   2.0000      -0.245395        -6.6775 
  82   2.0000      -0.236880        -6.4458 
  83   2.0000      -0.189715        -5.1624 
  84   0.0000      -0.077073        -2.0973 
  85   0.0000      -0.033348        -0.9075 
  86   0.0000      -0.021847        -0.5945 
  87   0.0000      -0.006631        -0.1804 
  88   0.0000       0.007577         0.2062 
  89   0.0000       0.039182         1.0662 
  90   0.0000       0.052577         1.4307 
  91   0.0000       0.062937         1.7126 
  92   0.0000       0.067933         1.8486 
  93   0.0000       0.069131         1.8811 
  94   0.0000       0.071349         1.9415 
*Only the first 10 virtual orbitals were printed.

                    ********************************
                    * MULLIKEN POPULATION ANALYSIS *
                    ********************************

-----------------------
MULLIKEN ATOMIC CHARGES
-----------------------
   0 C :   -0.111938
   1 C :   -0.162353
   2 C :   -0.231805
   3 H :    0.102059
   4 H :    0.117370
   5 C :    0.243756
   6 H :    0.126703
   7 H :    0.111508
   8 C :   -0.000902
   9 N :   -0.140314
  10 H :    0.105310
  11 H :    0.131978
  12 C :   -0.113114
  13 C :   -0.150589
  14 H :    0.105482
  15 H :    0.134130
  16 C :   -0.272962
  17 H :    0.117026
  18 H :    0.102165
  19 C :    0.101867
  20 H :    0.112313
  21 H :    0.126606
  22 C :   -0.555791
  23 C :    0.091659
  24 C :    0.427087
  25 O :   -0.371016
  26 C :    0.422436
  27 C :   -0.286710
  28 C :    0.175663
  29 O :   -0.575009
  30 C :    0.147214
  31 C :   -0.196227
  32 C :   -0.033433
  33 N :   -0.501037
  34 C :    0.063442
  35 C :   -0.073505
  36 H :    0.118231
  37 H :    0.114843
  38 H :    0.122936
  39 H :    0.129835
  40 H :    0.090586
  41 H :    0.134499
Sum of atomic charges:   -0.0000000

--------------------------------
MULLIKEN REDUCED ORBITAL CHARGES
--------------------------------
  0 C s       :     3.157220  s :     3.157220
      pz      :     1.012050  p :     2.846159
      px      :     0.821176
      py      :     1.012933
      dz2     :     0.021644  d :     0.108558
      dxz     :     0.031021
      dyz     :     0.015368
      dx2y2   :     0.016232
      dxy     :     0.024293

  1 C s       :     3.115699  s :     3.115699
      pz      :     0.980344  p :     2.955884
      px      :     1.023631
      py      :     0.951909
      dz2     :     0.019740  d :     0.090770
      dxz     :     0.010009
      dyz     :     0.024631
      dx2y2   :     0.018373
      dxy     :     0.018017

  2 C s       :     3.140246  s :     3.140246
      pz      :     1.037821  p :     3.001672
      px      :     0.954285
      py      :     1.009566
      dz2     :     0.012051  d :     0.089886
      dxz     :     0.019839
      dyz     :     0.016185
      dx2y2   :     0.023040
      dxy     :     0.018771

  3 H s       :     0.874632  s :     0.874632
      pz      :     0.013061  p :     0.023309
      px      :     0.004884
      py      :     0.005364

  4 H s       :     0.858753  s :     0.858753
      pz      :     0.004548  p :     0.023877
      px      :     0.013892
      py      :     0.005436

  5 C s       :     3.063627  s :     3.063627
      pz      :     0.975249  p :     2.547479
      px      :     0.765053
      py      :     0.807177
      dz2     :     0.009780  d :     0.145138
      dxz     :     0.023013
      dyz     :     0.023433
      dx2y2   :     0.046089
      dxy     :     0.042822

  6 H s       :     0.849481  s :     0.849481
      pz      :     0.009508  p :     0.023816
      px      :     0.003998
      py      :     0.010310

  7 H s       :     0.865182  s :     0.865182
      pz      :     0.011128  p :     0.023311
      px      :     0.005302
      py      :     0.006880

  8 C s       :     3.017985  s :     3.017985
      pz      :     0.926841  p :     2.791388
      px      :     0.902421
      py      :     0.962127
      dz2     :     0.009488  d :     0.191529
      dxz     :     0.043688
      dyz     :     0.030363
      dx2y2   :     0.053899
      dxy     :     0.054092

  9 N s       :     3.381774  s :     3.381774
      pz      :     1.459554  p :     3.660078
      px      :     1.086650
      py      :     1.113874
      dz2     :     0.009474  d :     0.098462
      dxz     :     0.015523
      dyz     :     0.013876
      dx2y2   :     0.029023
      dxy     :     0.030565

 10 H s       :     0.872144  s :     0.872144
      pz      :     0.012272  p :     0.022546
      px      :     0.005028
      py      :     0.005247

 11 H s       :     0.844380  s :     0.844380
      pz      :     0.005088  p :     0.023642
      px      :     0.007928
      py      :     0.010626

 12 C s       :     3.158079  s :     3.158079
      pz      :     1.002453  p :     2.846975
      px      :     1.035146
      py      :     0.809377
      dz2     :     0.026651  d :     0.108059
      dxz     :     0.012859
      dyz     :     0.021746
      dx2y2   :     0.023728
      dxy     :     0.023076

 13 C s       :     3.107305  s :     3.107305
      pz      :     1.022557  p :     2.952408
      px      :     0.922402
      py      :     1.007450
      dz2     :     0.020367  d :     0.090877
      dxz     :     0.015907
      dyz     :     0.009097
      dx2y2   :     0.026252
      dxy     :     0.019254

 14 H s       :     0.871947  s :     0.871947
      pz      :     0.015281  p :     0.022571
      px      :     0.004243
      py      :     0.003047

 15 H s       :     0.842132  s :     0.842132
      pz      :     0.005177  p :     0.023737
      px      :     0.011778
      py      :     0.006782

 16 C s       :     3.165789  s :     3.165789
      pz      :     1.029808  p :     3.015289
      px      :     1.034601
      py      :     0.950880
      dz2     :     0.019151  d :     0.091884
      dxz     :     0.008094
      dyz     :     0.020373
      dx2y2   :     0.023412
      dxy     :     0.020854

 17 H s       :     0.859090  s :     0.859090
      pz      :     0.006098  p :     0.023884
      px      :     0.003948
      py      :     0.013839

 18 H s       :     0.874541  s :     0.874541
      pz      :     0.014969  p :     0.023294
      px      :     0.003777
      py      :     0.004549

 19 C s       :     3.277583  s :     3.277583
      pz      :     1.016296  p :     2.491164
      px      :     0.719135
      py      :     0.755734
      dz2     :     0.015514  d :     0.129386
      dxz     :     0.021715
      dyz     :     0.021297
      dx2y2   :     0.025166
      dxy     :     0.045693

 20 H s       :     0.864313  s :     0.864313
      pz      :     0.015239  p :     0.023373
      px      :     0.004353
      py      :     0.003781

 21 H s       :     0.849242  s :     0.849242
      pz      :     0.005353  p :     0.024153
      px      :     0.013231
      py      :     0.005568

 22 C s       :     3.500595  s :     3.500595
      pz      :     0.977510  p :     2.958065
      px      :     1.039168
      py      :     0.941387
      dz2     :     0.007125  d :     0.097132
      dxz     :     0.028289
      dyz     :     0.007429
      dx2y2   :     0.032707
      dxy     :     0.021582

 23 C s       :     3.170160  s :     3.170160
      pz      :     0.903975  p :     2.548975
      px      :     0.740876
      py      :     0.904124
      dz2     :     0.013861  d :     0.189206
      dxz     :     0.039485
      dyz     :     0.030521
      dx2y2   :     0.058676
      dxy     :     0.046662

 24 C s       :     3.007919  s :     3.007919
      pz      :     0.948406  p :     2.422812
      px      :     0.671421
      py      :     0.802985
      dz2     :     0.013296  d :     0.142182
      dxz     :     0.027632
      dyz     :     0.020691
      dx2y2   :     0.049612
      dxy     :     0.030951

 25 O s       :     3.821315  s :     3.821315
      pz      :     1.663314  p :     4.504242
      px      :     1.231513
      py      :     1.609415
      dz2     :     0.005677  d :     0.045459
      dxz     :     0.009448
      dyz     :     0.004332
      dx2y2   :     0.007834
      dxy     :     0.018167

 26 C s       :     2.920529  s :     2.920529
      pz      :     0.817115  p :     2.404361
      px      :     0.665476
      py      :     0.921771
      dz2     :     0.015733  d :     0.252674
      dxz     :     0.046483
      dyz     :     0.036366
      dx2y2   :     0.098285
      dxy     :     0.055806

 27 C s       :     3.299910  s :     3.299910
      pz      :     0.917716  p :     2.891007
      px      :     1.008373
      py      :     0.964919
      dz2     :     0.006928  d :     0.095792
      dxz     :     0.030845
      dyz     :     0.006300
      dx2y2   :     0.028433
      dxy     :     0.023286

 28 C s       :     3.125557  s :     3.125557
      pz      :     1.074274  p :     2.571800
      px      :     0.739457
      py      :     0.758069
      dz2     :     0.011486  d :     0.126980
      dxz     :     0.024186
      dyz     :     0.015276
      dx2y2   :     0.047770
      dxy     :     0.028262

 29 O s       :     3.877456  s :     3.877456
      pz      :     1.492406  p :     4.664724
      px      :     1.523813
      py      :     1.648505
      dz2     :     0.004292  d :     0.032829
      dxz     :     0.007948
      dyz     :     0.003840
      dx2y2   :     0.007259
      dxy     :     0.009490

 30 C s       :     3.162624  s :     3.162624
      pz      :     0.846392  p :     2.539861
      px      :     0.803309
      py      :     0.890161
      dz2     :     0.020688  d :     0.150301
      dxz     :     0.035478
      dyz     :     0.022256
      dx2y2   :     0.031711
      dxy     :     0.040168

 31 C s       :     3.205916  s :     3.205916
      pz      :     0.943527  p :     2.902320
      px      :     0.979617
      py      :     0.979176
      dz2     :     0.009840  d :     0.087990
      dxz     :     0.021129
      dyz     :     0.009202
      dx2y2   :     0.025129
      dxy     :     0.022689

 32 C s       :     3.175624  s :     3.175624
      pz      :     0.929178  p :     2.758650
      px      :     0.922779
      py      :     0.906692
      dz2     :     0.011269  d :     0.099159
      dxz     :     0.020107
      dyz     :     0.016941
      dx2y2   :     0.032367
      dxy     :     0.018475

 33 N s       :     3.578466  s :     3.578466
      pz      :     1.296661  p :     3.847689
      px      :     1.113086
      py      :     1.437943
      dz2     :     0.011317  d :     0.074881
      dxz     :     0.019005
      dyz     :     0.007967
      dx2y2   :     0.014933
      dxy     :     0.021659

 34 C s       :     3.124904  s :     3.124904
      pz      :     0.893003  p :     2.716099
      px      :     0.886351
      py      :     0.936745
      dz2     :     0.020775  d :     0.095555
      dxz     :     0.015698
      dyz     :     0.013797
      dx2y2   :     0.017376
      dxy     :     0.027909

 35 C s       :     3.148633  s :     3.148633
      pz      :     0.956871  p :     2.843288
      px      :     0.958833
      py      :     0.927584
      dz2     :     0.010784  d :     0.081584
      dxz     :     0.015806
      dyz     :     0.014771
      dx2y2   :     0.023510
      dxy     :     0.016713

 36 H s       :     0.856047  s :     0.856047
      pz      :     0.008400  p :     0.025721
      px      :     0.012782
      py      :     0.004539

 37 H s       :     0.858996  s :     0.858996
      pz      :     0.007821  p :     0.026160
      px      :     0.013806
      py      :     0.004533

 38 H s       :     0.852082  s :     0.852082
      pz      :     0.004135  p :     0.024982
      px      :     0.012004
      py      :     0.008842

 39 H s       :     0.842115  s :     0.842115
      pz      :     0.009195  p :     0.028050
      px      :     0.003944
      py      :     0.014911

 40 H s       :     0.883255  s :     0.883255
      pz      :     0.006367  p :     0.026159
      px      :     0.003536
      py      :     0.016256

 41 H s       :     0.838303  s :     0.838303
      pz      :     0.005552  p :     0.027197
      px      :     0.004071
      py      :     0.017574



                     *******************************
                     * LOEWDIN POPULATION ANALYSIS *
                     *******************************

----------------------
LOEWDIN ATOMIC CHARGES
----------------------
   0 C :   -0.189704
   1 C :   -0.217268
   2 C :   -0.186893
   3 H :    0.129937
   4 H :    0.131545
   5 C :   -0.108217
   6 H :    0.136745
   7 H :    0.138163
   8 C :   -0.064559
   9 N :    0.127671
  10 H :    0.125985
  11 H :    0.130291
  12 C :   -0.187832
  13 C :   -0.216239
  14 H :    0.126607
  15 H :    0.130767
  16 C :   -0.189039
  17 H :    0.131658
  18 H :    0.130255
  19 C :   -0.089357
  20 H :    0.138656
  21 H :    0.135820
  22 C :   -0.063016
  23 C :   -0.091642
  24 C :   -0.132230
  25 O :    0.210547
  26 C :   -0.237449
  27 C :   -0.000963
  28 C :   -0.108679
  29 O :   -0.079343
  30 C :   -0.103584
  31 C :   -0.074476
  32 C :   -0.128927
  33 N :   -0.001511
  34 C :   -0.170098
  35 C :   -0.137141
  36 H :    0.133585
  37 H :    0.143248
  38 H :    0.130278
  39 H :    0.144639
  40 H :    0.149038
  41 H :    0.152733

-------------------------------
LOEWDIN REDUCED ORBITAL CHARGES
-------------------------------
  0 C s       :     2.780331  s :     2.780331
      pz      :     1.049040  p :     2.964525
      px      :     0.888611
      py      :     1.026874
      dz2     :     0.081473  d :     0.444848
      dxz     :     0.107948
      dyz     :     0.070366
      dx2y2   :     0.068098
      dxy     :     0.116963

  1 C s       :     2.779719  s :     2.779719
      pz      :     1.026234  p :     3.070260
      px      :     1.021533
      py      :     1.022493
      dz2     :     0.085821  d :     0.367289
      dxz     :     0.039759
      dyz     :     0.089631
      dx2y2   :     0.079442
      dxy     :     0.072635

  2 C s       :     2.767586  s :     2.767586
      pz      :     1.034987  p :     3.048767
      px      :     0.999202
      py      :     1.014579
      dz2     :     0.041061  d :     0.370540
      dxz     :     0.070804
      dyz     :     0.089468
      dx2y2   :     0.087405
      dxy     :     0.081802

  3 H s       :     0.811788  s :     0.811788
      pz      :     0.028951  p :     0.058276
      px      :     0.014147
      py      :     0.015178

  4 H s       :     0.809635  s :     0.809635
      pz      :     0.012218  p :     0.058820
      px      :     0.031390
      py      :     0.015212

  5 C s       :     2.718364  s :     2.718364
      pz      :     0.901166  p :     2.906375
      px      :     1.011056
      py      :     0.994152
      dz2     :     0.038239  d :     0.483478
      dxz     :     0.078950
      dyz     :     0.067739
      dx2y2   :     0.154691
      dxy     :     0.143859

  6 H s       :     0.804844  s :     0.804844
      pz      :     0.023896  p :     0.058411
      px      :     0.011658
      py      :     0.022857

  7 H s       :     0.803836  s :     0.803836
      pz      :     0.027119  p :     0.058001
      px      :     0.014581
      py      :     0.016301

  8 C s       :     2.702248  s :     2.702248
      pz      :     0.858758  p :     2.764176
      px      :     0.937581
      py      :     0.967837
      dz2     :     0.048983  d :     0.598136
      dxz     :     0.122492
      dyz     :     0.088413
      dx2y2   :     0.163108
      dxy     :     0.175140

  9 N s       :     2.908624  s :     2.908624
      pz      :     1.361066  p :     3.686735
      px      :     1.151611
      py      :     1.174058
      dz2     :     0.025425  d :     0.276970
      dxz     :     0.044522
      dyz     :     0.036901
      dx2y2   :     0.086721
      dxy     :     0.083402

 10 H s       :     0.816485  s :     0.816485
      pz      :     0.029562  p :     0.057530
      px      :     0.012828
      py      :     0.015140

 11 H s       :     0.811063  s :     0.811063
      pz      :     0.014831  p :     0.058646
      px      :     0.017841
      py      :     0.025974

 12 C s       :     2.779818  s :     2.779818
      pz      :     1.023575  p :     2.964851
      px      :     1.045687
      py      :     0.895588
      dz2     :     0.117463  d :     0.443163
      dxz     :     0.045293
      dyz     :     0.081831
      dx2y2   :     0.096914
      dxy     :     0.101662

 13 C s       :     2.779083  s :     2.779083
      pz      :     1.037570  p :     3.069480
      px      :     1.017422
      py      :     1.014489
      dz2     :     0.085100  d :     0.367676
      dxz     :     0.060719
      dyz     :     0.045725
      dx2y2   :     0.103163
      dxy     :     0.072970

 14 H s       :     0.815841  s :     0.815841
      pz      :     0.036055  p :     0.057552
      px      :     0.012256
      py      :     0.009241

 15 H s       :     0.810444  s :     0.810444
      pz      :     0.014801  p :     0.058788
      px      :     0.027712
      py      :     0.016275

 16 C s       :     2.765721  s :     2.765721
      pz      :     1.032426  p :     3.050466
      px      :     1.024223
      py      :     0.993818
      dz2     :     0.091395  d :     0.372851
      dxz     :     0.037526
      dyz     :     0.061682
      dx2y2   :     0.095951
      dxy     :     0.086298

 17 H s       :     0.809568  s :     0.809568
      pz      :     0.016867  p :     0.058774
      px      :     0.012013
      py      :     0.029893

 18 H s       :     0.811487  s :     0.811487
      pz      :     0.034326  p :     0.058258
      px      :     0.011740
      py      :     0.012193

 19 C s       :     2.712670  s :     2.712670
      pz      :     0.934665  p :     2.913785
      px      :     0.993314
      py      :     0.985806
      dz2     :     0.044544  d :     0.462902
      dxz     :     0.070158
      dyz     :     0.067695
      dx2y2   :     0.132065
      dxy     :     0.148439

 20 H s       :     0.803297  s :     0.803297
      pz      :     0.034401  p :     0.058047
      px      :     0.012278
      py      :     0.011368

 21 H s       :     0.804737  s :     0.804737
      pz      :     0.015347  p :     0.059443
      px      :     0.029791
      py      :     0.014306

 22 C s       :     2.761477  s :     2.761477
      pz      :     0.905494  p :     2.924630
      px      :     1.028244
      py      :     0.990892
      dz2     :     0.024418  d :     0.376909
      dxz     :     0.087402
      dyz     :     0.026878
      dx2y2   :     0.143013
      dxy     :     0.095199

 23 C s       :     2.710055  s :     2.710055
      pz      :     0.883788  p :     2.742253
      px      :     0.851956
      py      :     1.006510
      dz2     :     0.058132  d :     0.639335
      dxz     :     0.124274
      dyz     :     0.087540
      dx2y2   :     0.173185
      dxy     :     0.196204

 24 C s       :     2.702584  s :     2.702584
      pz      :     0.927651  p :     2.931767
      px      :     1.006860
      py      :     0.997256
      dz2     :     0.045725  d :     0.497879
      dxz     :     0.079710
      dyz     :     0.068111
      dx2y2   :     0.158070
      dxy     :     0.146263

 25 O s       :     3.282087  s :     3.282087
      pz      :     1.565418  p :     4.405841
      px      :     1.273637
      py      :     1.566786
      dz2     :     0.011972  d :     0.101525
      dxz     :     0.022662
      dyz     :     0.005904
      dx2y2   :     0.024741
      dxy     :     0.036246

 26 C s       :     2.747780  s :     2.747780
      pz      :     0.803973  p :     2.622395
      px      :     0.844534
      py      :     0.973888
      dz2     :     0.079969  d :     0.867274
      dxz     :     0.149023
      dyz     :     0.105451
      dx2y2   :     0.271703
      dxy     :     0.261128

 27 C s       :     2.774322  s :     2.774322
      pz      :     0.833468  p :     2.859593
      px      :     1.026115
      py      :     1.000011
      dz2     :     0.024374  d :     0.367048
      dxz     :     0.089016
      dyz     :     0.023282
      dx2y2   :     0.135156
      dxy     :     0.095220

 28 C s       :     2.716254  s :     2.716254
      pz      :     0.950177  p :     2.936060
      px      :     1.004615
      py      :     0.981268
      dz2     :     0.036505  d :     0.456365
      dxz     :     0.077385
      dyz     :     0.055702
      dx2y2   :     0.156093
      dxy     :     0.130679

 29 O s       :     3.441075  s :     3.441075
      pz      :     1.431342  p :     4.572687
      px      :     1.546262
      py      :     1.595083
      dz2     :     0.008103  d :     0.065581
      dxz     :     0.013353
      dyz     :     0.006497
      dx2y2   :     0.015995
      dxy     :     0.021633

 30 C s       :     2.718540  s :     2.718540
      pz      :     0.933735  p :     2.892432
      px      :     0.992685
      py      :     0.966012
      dz2     :     0.065267  d :     0.492612
      dxz     :     0.104024
      dyz     :     0.075537
      dx2y2   :     0.124800
      dxy     :     0.122983

 31 C s       :     2.776160  s :     2.776160
      pz      :     0.918191  p :     2.931023
      px      :     1.032942
      py      :     0.979890
      dz2     :     0.036064  d :     0.367293
      dxz     :     0.076801
      dyz     :     0.055994
      dx2y2   :     0.112036
      dxy     :     0.086398

 32 C s       :     2.781143  s :     2.781143
      pz      :     0.936233  p :     2.881320
      px      :     0.967699
      py      :     0.977387
      dz2     :     0.047019  d :     0.466464
      dxz     :     0.096865
      dyz     :     0.069060
      dx2y2   :     0.133926
      dxy     :     0.119594

 33 N s       :     3.078327  s :     3.078327
      pz      :     1.205230  p :     3.708607
      px      :     1.169536
      py      :     1.333841
      dz2     :     0.025196  d :     0.214577
      dxz     :     0.054730
      dyz     :     0.017893
      dx2y2   :     0.056693
      dxy     :     0.060064

 34 C s       :     2.791421  s :     2.791421
      pz      :     0.943357  p :     2.909152
      px      :     0.963555
      py      :     1.002240
      dz2     :     0.080734  d :     0.469525
      dxz     :     0.084872
      dyz     :     0.068798
      dx2y2   :     0.087012
      dxy     :     0.148108

 35 C s       :     2.783048  s :     2.783048
      pz      :     0.953910  p :     2.987981
      px      :     1.012316
      py      :     1.021756
      dz2     :     0.040352  d :     0.366112
      dxz     :     0.071171
      dyz     :     0.061407
      dx2y2   :     0.108001
      dxy     :     0.085181

 36 H s       :     0.805249  s :     0.805249
      pz      :     0.019820  p :     0.061166
      px      :     0.028723
      py      :     0.012622

 37 H s       :     0.795575  s :     0.795575
      pz      :     0.018423  p :     0.061177
      px      :     0.029675
      py      :     0.013079

 38 H s       :     0.809769  s :     0.809769
      pz      :     0.011898  p :     0.059953
      px      :     0.026890
      py      :     0.021165

 39 H s       :     0.788933  s :     0.788933
      pz      :     0.021440  p :     0.066428
      px      :     0.012190
      py      :     0.032799

 40 H s       :     0.790070  s :     0.790070
      pz      :     0.015713  p :     0.060892
      px      :     0.010957
      py      :     0.034222

 41 H s       :     0.783915  s :     0.783915
      pz      :     0.013689  p :     0.063352
      px      :     0.011830
      py      :     0.037833



                      *****************************
                      * MAYER POPULATION ANALYSIS *
                      *****************************

  NA   - Mulliken gross atomic population
  ZA   - Total nuclear charge
  QA   - Mulliken gross atomic charge
  VA   - Mayer's total valence
  BVA  - Mayer's bonded valence
  FA   - Mayer's free valence

  ATOM       NA         ZA         QA         VA         BVA        FA
  0 C      6.1119     6.0000    -0.1119     3.9114     3.9114     0.0000
  1 C      6.1624     6.0000    -0.1624     3.9533     3.9533     0.0000
  2 C      6.2318     6.0000    -0.2318     3.9178     3.9178     0.0000
  3 H      0.8979     1.0000     0.1021     0.9678     0.9678     0.0000
  4 H      0.8826     1.0000     0.1174     0.9586     0.9586     0.0000
  5 C      5.7562     6.0000     0.2438     3.6761     3.6761    -0.0000
  6 H      0.8733     1.0000     0.1267     0.9527     0.9527     0.0000
  7 H      0.8885     1.0000     0.1115     0.9545     0.9545     0.0000
  8 C      6.0009     6.0000    -0.0009     4.0843     4.0843    -0.0000
  9 N      7.1403     7.0000    -0.1403     3.3356     3.3356    -0.0000
 10 H      0.8947     1.0000     0.1053     0.9533     0.9533    -0.0000
 11 H      0.8680     1.0000     0.1320     0.9493     0.9493    -0.0000
 12 C      6.1131     6.0000    -0.1131     3.9068     3.9068    -0.0000
 13 C      6.1506     6.0000    -0.1506     3.9516     3.9516     0.0000
 14 H      0.8945     1.0000     0.1055     0.9550     0.9550    -0.0000
 15 H      0.8659     1.0000     0.1341     0.9489     0.9489    -0.0000
 16 C      6.2730     6.0000    -0.2730     3.9533     3.9533     0.0000
 17 H      0.8830     1.0000     0.1170     0.9590     0.9590     0.0000
 18 H      0.8978     1.0000     0.1022     0.9669     0.9669    -0.0000
 19 C      5.8981     6.0000     0.1019     3.6545     3.6545     0.0000
 20 H      0.8877     1.0000     0.1123     0.9556     0.9556     0.0000
 21 H      0.8734     1.0000     0.1266     0.9567     0.9567     0.0000
 22 C      6.5558     6.0000    -0.5558     3.8258     3.8258    -0.0000
 23 C      5.9083     6.0000     0.0917     3.8882     3.8882     0.0000
 24 C      5.5729     6.0000     0.4271     3.5843     3.5843    -0.0000
 25 O      8.3710     8.0000    -0.3710     2.1214     2.1214     0.0000
 26 C      5.5776     6.0000     0.4224     4.2074     4.2074    -0.0000
 27 C      6.2867     6.0000    -0.2867     3.7559     3.7559    -0.0000
 28 C      5.8243     6.0000     0.1757     3.4406     3.4406    -0.0000
 29 O      8.5750     8.0000    -0.5750     1.9869     1.9869    -0.0000
 30 C      5.8528     6.0000     0.1472     3.7950     3.7950     0.0000
 31 C      6.1962     6.0000    -0.1962     3.9962     3.9962    -0.0000
 32 C      6.0334     6.0000    -0.0334     4.0413     4.0413     0.0000
 33 N      7.5010     7.0000    -0.5010     3.0403     3.0403    -0.0000
 34 C      5.9366     6.0000     0.0634     3.9931     3.9931    -0.0000
 35 C      6.0735     6.0000    -0.0735     3.9288     3.9288    -0.0000
 36 H      0.8818     1.0000     0.1182     0.9890     0.9890     0.0000
 37 H      0.8852     1.0000     0.1148     0.9687     0.9687     0.0000
 38 H      0.8771     1.0000     0.1229     0.9748     0.9748    -0.0000
 39 H      0.8702     1.0000     0.1298     0.9984     0.9984    -0.0000
 40 H      0.9094     1.0000     0.0906     0.9895     0.9895     0.0000
 41 H      0.8655     1.0000     0.1345     0.9810     0.9810    -0.0000

  Mayer bond orders larger than 0.100000
B(  0-C ,  1-C ) :   1.0025 B(  0-C ,  9-N ) :   0.9510 B(  0-C , 10-H ) :   0.9479 
B(  0-C , 11-H ) :   0.9504 B(  1-C ,  2-C ) :   1.0238 B(  1-C ,  3-H ) :   0.9681 
B(  1-C ,  4-H ) :   0.9600 B(  2-C ,  5-C ) :   0.9992 B(  2-C ,  6-H ) :   0.9550 
B(  2-C ,  7-H ) :   0.9460 B(  5-C ,  8-C ) :   1.2386 B(  5-C , 22-C ) :   1.3878 
B(  8-C ,  9-N ) :   1.3588 B(  8-C , 19-C ) :   1.2460 B(  9-N , 12-C ) :   0.9499 
B( 12-C , 13-C ) :   0.9975 B( 12-C , 14-H ) :   0.9481 B( 12-C , 15-H ) :   0.9519 
B( 13-C , 16-C ) :   1.0357 B( 13-C , 17-H ) :   0.9624 B( 13-C , 18-H ) :   0.9667 
B( 16-C , 19-C ) :   1.0368 B( 16-C , 20-H ) :   0.9541 B( 16-C , 21-H ) :   0.9471 
B( 19-C , 23-C ) :   1.3381 B( 22-C , 24-C ) :   1.0886 B( 22-C , 40-H ) :   1.0540 
B( 23-C , 24-C ) :   1.3419 B( 23-C , 25-O ) :   1.0202 B( 24-C , 27-C ) :   1.1772 
B( 25-O , 26-C ) :   1.0902 B( 26-C , 28-C ) :   1.1389 B( 26-C , 29-O ) :   1.8801 
B( 27-C , 28-C ) :   1.3578 B( 27-C , 41-H ) :   0.9632 B( 28-C , 30-C ) :   0.9926 
B( 30-C , 31-C ) :   1.3961 B( 30-C , 32-C ) :   1.3631 B( 31-C , 35-C ) :   1.4690 
B( 31-C , 39-H ) :   0.9562 B( 32-C , 33-N ) :   1.5350 B( 32-C , 36-H ) :   0.9675 
B( 33-N , 34-C ) :   1.4425 B( 34-C , 35-C ) :   1.4122 B( 34-C , 38-H ) :   0.9680 
B( 35-C , 37-H ) :   0.9658 

-------
TIMINGS
-------

Total SCF time: 0 days 0 hours 3 min 55 sec 

Total time                  ....     235.542 sec
Sum of individual times     ....     233.988 sec  ( 99.3%)

SCF preparation             ....       2.501 sec  (  1.1%)
Fock matrix formation       ....     227.872 sec  ( 96.7%)
  Startup                   ....       0.158 sec  (  0.1% of F)
  Split-RI-J                ....      14.441 sec  (  6.3% of F)
  Chain of spheres X        ....     178.374 sec  ( 78.3% of F)
  XC integration            ....      13.791 sec  (  6.1% of F)
    XC Preparation          ....       0.000 sec  (  0.0% of XC)
    Basis function eval.    ....       3.564 sec  ( 25.8% of XC)
    Density eval.           ....       4.122 sec  ( 29.9% of XC)
    XC-Functional eval.     ....       0.250 sec  (  1.8% of XC)
    XC-Potential eval.      ....       3.437 sec  ( 24.9% of XC)
  CPCM terms                ....      19.208 sec  (  8.4% of F)
Diagonalization             ....       0.000 sec  (  0.0%)
Density matrix formation    ....       0.916 sec  (  0.4%)
Total Energy calculation    ....       0.514 sec  (  0.2%)
Population analysis         ....       0.102 sec  (  0.0%)
Orbital Transformation      ....       0.248 sec  (  0.1%)
Orbital Orthonormalization  ....       0.000 sec  (  0.0%)
DIIS solution               ....       0.186 sec  (  0.1%)
SOSCF solution              ....       1.616 sec  (  0.7%)
Finished LeanSCF after 235.7 sec

Maximum memory used throughout the entire LEANSCF-calculation: 170.9 MB

------------------------------------------------------------------------------
                         ORCA PROPERTY INTEGRAL CALCULATIONS
------------------------------------------------------------------------------

GBWName                                   ... NMU-1.gbw
Number of atoms                           ...     42
Number of basis functions                 ...    684
Max core memory                           ...   1024 MB

Dipole integrals                          ... YES
Quadrupole integrals                      ...  NO
Linear momentum integrals                 ... YES
Angular momentum integrals                ... YES
Higher moments length integrals           ...  NO
Higher moments velocity integrals         ...  NO
Kinetic energy integrals                  ...  NO
GIAO right hand sides                     ...  NO
GIAO dipole derivative integrals          ...  NO
SOC integrals                             ...  NO
EPR diamagnetic integrals (GIAO)          ...  NO
EPR gauge integrals                       ...  NO
Field gradient integrals                  ...  NO (   0 nuclei)
Spin-dipole/Fermi contact integrals       ...  NO (   0 nuclei)
Contact density integrals                 ...  NO (   0 nuclei)
Nucleus-orbit integrals                   ...  NO (   0 nuclei)
Geometric perturbations                   ...  NO (  42 nuclei)

Choice of electric origin   ... Center of mass
Position of electric origin ... ( -2.6981, -5.0960,  0.1059) 
Choice of magnetic origin   ... GIAO
Position of magnetic origin ... (  0.0000,  0.0000,  0.0000) 

Calculating integrals                     ... Electric Dipole (Length)     done (  0.3 sec)
Calculating integrals                     ... Linear Momentum              done (  0.4 sec)
Calculating integrals                     ... Angular Momentum  (ElOri)    done (  0.3 sec)

Property integrals calculated in   1.0 sec

Maximum memory used throughout the entire PROPINT-calculation: 91.8 MB
------------------------------------------------------------------------------
                        ORCA TD-DFT/TDA CALCULATION
------------------------------------------------------------------------------

Input orbitals are from        ... NMU-1.gbw
CI-vector output               ... NMU-1.cis
Solver                         ... FN-2001
Tamm-Dancoff approximation     ... operative
CIS-Integral strategy          ... AO-integrals
Integral handling              ... AO integral Direct
Max. core memory used          ... 512 MB
Reference state                ... RHF
Generation of triplets         ... off
Follow IRoot                   ... off
Number of operators            ... 1
Orbital ranges used for CIS calculation:
 Operator 0:  Orbitals  24... 83  to  84...683
XAS localization array:
 Operator 0:  Orbitals  -1... -1

-------------------
XC-INTEGRATION GRID
-------------------

General Integration Accuracy     IntAcc      ... 3.467
Radial Grid Type                 RadialGrid  ... OptM3 with GC (2021)
Angular Grid (max. ang.)         AngularGrid ... 1 (Lebedev-50)
Angular grid pruning method      GridPruning ... 4 (adaptive)
Weight generation scheme         WeightScheme... mBecke (2022)
Basis function cutoff            BFCut       ... 1.0000e-11
Integration weight cutoff        WCut        ... 1.0000e-14
Partially contracted basis set               ... off
Rotationally invariant grid construction     ... off
Angular grids for H and He will be reduced by one unit

Total number of grid points                  ...    29194
Total number of batches                      ...      474
Average number of points per batch           ...       61
Average number of grid points per atom       ...      695

---------------------
COSX-INTEGRATION GRID
---------------------

General Integration Accuracy     IntAcc      ... 3.067
Radial Grid Type                 RadialGrid  ... OptM3 with GC (2021)
Angular Grid (max. ang.)         AngularGrid ... 1 (Lebedev-50)
Angular grid pruning method      GridPruning ... 4 (adaptive)
Weight generation scheme         WeightScheme... mBecke (2022)
Basis function cutoff            BFCut       ... 1.0000e-11
Integration weight cutoff        WCut        ... 1.0000e-14
Partially contracted basis set               ... on
Rotationally invariant grid construction     ... off
Angular grids for H and He will be reduced by one unit

Total number of grid points                  ...    13512
Total number of batches                      ...      134
Average number of points per batch           ...      100
Average number of grid points per atom       ...      322

---------------
TD-DFT XC SETUP
---------------

DFT calculation                         ... on
Name of the grid file                   ... NMU-1.grid_cis.tmp
RI-approximation                        ... on
Aux-basis dimension                     ... 2094
Exchange functional (TD-DFT)            ... B88
   X-Alpha parameter    XAlpha (TD-DFT) ...  0.666667
   Becke's b parameter  XBeta (TD-DFT)  ...  0.004200
Correlation functional (TD-DFT)         ... LYP
 LDA part of GGA corr.  LDAOpt (TD-DFT) ... VWN-5
Hybrid DFT                              ... on
   Exchange mixing (TD-DFT)             ...  0.200
   GGA exch. scaling (TD-DFT)           ...  0.720
   GGA corr. scaling (TD-DFT)           ...  0.810

Building densities             ... done
Calculating rho(r) on the grid ... done
Building xc-kernel on the grid ... done
                    *** TD-DFT CALCULATION INITIALIZED ***

-----------------------------
    LR-CPCM (equilibrium)
-----------------------------

Setting up LR-CPCM             ... done

------------------------
DAVIDSON-DIAGONALIZATION
------------------------

Dimension of the eigenvalue problem            ...  36000
Number of roots to be determined               ...      1
Maximum size of the expansion space            ...     10
Maximum number of iterations                   ...    100
Convergence tolerance for the residual         ...    2.500e-07
Convergence tolerance for the energies         ...    2.500e-07
Orthogonality tolerance                        ...    1.000e-14
Level Shift                                    ...    0.000e+00
Constructing the preconditioner                ... o.k.
Building the initial guess                     ... o.k.
Number of trial vectors determined             ...     10


                       ****Iteration    0****
   Time for iteration     :  TOTAL=26.0 TRAFO=0.1 RIJ=3.8 COSX=11.4 XC=1.9
   Size of expansion space: 3
   Lowest Energy          :     0.117521024483
   Maximum Energy change  :     0.117521024483 (vector 0)
   Maximum residual norm  :     0.017925619337

                       ****Iteration    1****
   Time for iteration     :  TOTAL=19.3 TRAFO=0.7 RIJ=2.9 COSX=7.5 XC=0.5
   Size of expansion space: 4
   Lowest Energy          :     0.101174515895
   Maximum Energy change  :     0.016346508588 (vector 0)
   Maximum residual norm  :     0.000594915933

                       ****Iteration    2****
   Time for iteration     :  TOTAL=19.2 TRAFO=0.5 RIJ=2.9 COSX=7.5 XC=0.5
   Size of expansion space: 5
   Lowest Energy          :     0.100552993195
   Maximum Energy change  :     0.000621522700 (vector 0)
   Maximum residual norm  :     0.000058476395

                       ****Iteration    3****
   Time for iteration     :  TOTAL=18.5 TRAFO=0.2 RIJ=2.7 COSX=7.3 XC=0.5
   Size of expansion space: 6
   Lowest Energy          :     0.100459026180
   Maximum Energy change  :     0.000093967015 (vector 0)
   Maximum residual norm  :     0.000007086159

                       ****Iteration    4****
   Time for iteration     :  TOTAL=18.9 TRAFO=0.8 RIJ=2.5 COSX=7.3 XC=0.5
   Size of expansion space: 7
   Lowest Energy          :     0.100451399480
   Maximum Energy change  :     0.000007626700 (vector 0)
   Maximum residual norm  :     0.000000621607

                       ****Iteration    5****
   Time for iteration     :  TOTAL=18.5 TRAFO=0.0 RIJ=2.5 COSX=7.6 XC=0.5
   Size of expansion space: 8
   Lowest Energy          :     0.100450772295
   Maximum Energy change  :     0.000000627186 (vector 0)
   Maximum residual norm  :     0.000000073604

      *** CONVERGENCE OF RESIDUAL NORM REACHED ***

Storing the converged CI vectors               ... NMU-1.cis1

                 *** DAVIDSON DONE ***

Total time for solving the CIS problem:   121.708sec

------------------------------------
TD-DFT/TDA EXCITED STATES (SINGLETS)
------------------------------------

the weight of the individual excitations are printed if larger than 1.0e-02

STATE  1:  E=   0.100451 au      2.733 eV    22046.4 cm**-1 <S**2> =   0.000000 Mult 1
    83a ->  84a  :     0.970351 (c= -0.98506386)


-----------------------------
TD-DFT/TDA-EXCITATION SPECTRA
-----------------------------

Center of mass = ( -2.6981, -5.0960,  0.1059)
Generating CIS transition densities           ... done

----------------------------------------------------------------------------------------------------
                     ABSORPTION SPECTRUM VIA TRANSITION ELECTRIC DIPOLE MOMENTS    
----------------------------------------------------------------------------------------------------
     Transition      Energy     Energy  Wavelength fosc(D2)      D2        DX        DY        DZ   
                      (eV)      (cm-1)    (nm)                 (au**2)    (au)      (au)      (au)  
----------------------------------------------------------------------------------------------------
  0-1A  ->  1-1A    2.733404   22046.4   453.6   1.396369702  20.85155   4.31271  -1.49954   0.05850

----------------------------------------------------------------------------------------------------
                     ABSORPTION SPECTRUM VIA TRANSITION VELOCITY DIPOLE MOMENTS    
----------------------------------------------------------------------------------------------------
     Transition      Energy     Energy  Wavelength fosc(P2)      P2        PX        PY        PZ   
                      (eV)      (cm-1)    (nm)                 (au**2)    (au)      (au)      (au)  
----------------------------------------------------------------------------------------------------
  0-1A  ->  1-1A    2.733404   22046.4   453.6   0.737496825   0.11112  -0.30460   0.13528   0.00646

------------------------------------------------------------------------------------------
                     CD SPECTRUM VIA TRANSITION ELECTRIC DIPOLE MOMENTS    
------------------------------------------------------------------------------------------
     Transition      Energy     Energy  Wavelength    R        MX        MY        MZ   
                      (eV)      (cm-1)    (nm)   (1e40*cgs)   (au)      (au)      (au)  
------------------------------------------------------------------------------------------
  0-1A  ->  1-1A    2.733404   22046.4   453.6  -34.86796   0.04508   0.06998  -0.26506

------------------------------------------------------------------------------------------
                     CD SPECTRUM VIA TRANSITION VELOCITY DIPOLE MOMENTS    
------------------------------------------------------------------------------------------
     Transition      Energy     Energy  Wavelength    R        MX        MY        MZ   
                      (eV)      (cm-1)    (nm)   (1e40*cgs)   (au)      (au)      (au)  
------------------------------------------------------------------------------------------
  0-1A  ->  1-1A    2.733404   22046.4   453.6  -28.04755   0.04508   0.06998  -0.26506

Total run time:      123.456 sec

           *** ORCA-CIS/TD-DFT FINISHED WITHOUT ERROR ***
-----------------------
CIS/TD-DFT TOTAL ENERGY
-----------------------

    E(SCF)  =  -1032.697558057 Eh
    DE(CIS) =      0.100450772 Eh (Root  1)
    ----------------------------- ---------
    E(tot)  =  -1032.597107285 Eh


------------------------
TD-DFT GRADIENT XC SETUP
------------------------

Building densities                     ... done
Calculating rho(r) on the grid         ... done
Building xc-kernel on the grid         ... done
Building xc 3rd derivative on the grid ... done
                *** TD-DFT GRADIENT CALCULATION INITIALIZED ***

--------------------------
TD-DFT/TDA RELAXED DENSITY
--------------------------

Reference wavefunction             ... RHF
State of interest                  ... 1
Basis dimension                    ... 684
DFT-XC contribution needed         ... YES
RI-approximation                   ... YES
Do Coulomb                         ... YES
Do Exchange                        ... YES
Need Hartree-Fock Exchange         ... YES
facj, facx                         ...  2.000, -0.200
Conventional                       ... NO
Range separation                   ... NO
Triplet state                      ... NO
Spin Flip                          ... NO
CIS-vectors being read from        ... NMU-1.cis
 => Number of Vectors found: 1
 => Orbital Window: 24...83 -> 84...683

Reading the CIS file                     ... done
Norm of the CI vector                    ... 1.000000000
Reading the CPCM file                    ... done
Making the CIS (pseudo)densities         ... done
Making operators G(D) and Q(T)           ... (SHARK-ok)done
Transforming the Fock operators          ... done
Making the frozen-core relaxed density   ... done
Constructing the G(H) operator           ... (SHARK-ok)done
Transforming the G(H) operator           ... done
Calculating the CIS Lagrangian           ... done
Solving the Z-vector equations           ... 

Using XC Grid                  ... (NMU-1.grid_cpscf.tmp) 
Recalculating density on grid  ... (NMU-1.grho_cpscf0.tmp) done
Calculating the xc-kernel      ... (NMU-1.fxc_cpscf0.tmp) done

-------------------
SHARK CP-SCF DRIVER
-------------------

Dimension of the orbital basis          ...    684
Dimension of the CPSCF-problem          ...  50400
Number of operators                     ...      1
Max. number of iterations               ...    128
Convergence Tolerance                   ... 1.0e-04
Number of perturbations                 ...      1
Perturbation type                       ... REAL

----------------------------
POPLE LINEAR EQUATION SOLVER
----------------------------

  ITERATION   0:   ||err||_max =   1.9014e+00 (  17.5 sec)
  ITERATION   1:   ||err||_max =   1.0876e-01 (  17.5 sec)
  ITERATION   2:   ||err||_max =   2.2256e-02 (  17.2 sec)
  ITERATION   3:   ||err||_max =   8.2028e-03 (  17.4 sec)
  ITERATION   4:   ||err||_max =   3.6392e-03 (  17.5 sec)
  ITERATION   5:   ||err||_max =   1.3535e-03 (  18.1 sec)
  ITERATION   6:   ||err||_max =   3.6799e-04 (  17.4 sec)
  ITERATION   7:   ||err||_max =   1.2508e-04 (  17.4 sec)
  ITERATION   8:   ||err||_max =   4.9929e-05 (  17.7 sec)

Finalizing the relaxed density           ... done
Storing the relaxed density              ... done
Constructing the G(Z) operator           ... (SHARK-ok)done
Adding the CPCM contribution             ... done
Adding the XC terms                      ... done
Transforming the G(Z) operator           ... done
Making the W-matrix                      ... done
Finalizing the W-matrix                  ... done
Transforming the W-matrix                ... done
Nuc. rep. gradient        (SHARK) ... done (  0.0 sec)
HCore & Overlap gradient  (SHARK) ... done (  1.7 sec)
Split-RIJ-J gradient      (SHARK) ... done ( 11.0 sec)
COSX-gradient                     ... done ( 95.3 sec)
CPCM gradient                     ... done ( 10.5 sec)
Dispersion correction             ... done (  0.0 sec)

-------------------
DISPERSION GRADIENT
-------------------

   1   C   :   -0.000805187    0.000045832   -0.000049209
   2   C   :   -0.000634374   -0.000222550   -0.000355439
   3   C   :   -0.000457671   -0.000593757   -0.000232767
   4   H   :   -0.000258708   -0.000009306   -0.000422266
   5   H   :   -0.000324104   -0.000099827   -0.000156991
   6   C   :   -0.000136906   -0.000711999   -0.000193552
   7   H   :   -0.000138566   -0.000334860   -0.000193044
   8   H   :   -0.000248133   -0.000396722    0.000110197
   9   C   :   -0.000012432   -0.000088313    0.000034657
  10   N   :   -0.000559978    0.000360923    0.000105994
  11   H   :   -0.000439386   -0.000021040    0.000227236
  12   H   :   -0.000398474    0.000159871   -0.000059582
  13   C   :   -0.000336840    0.000694026    0.000250600
  14   C   :    0.000046373    0.000772503    0.000053327
  15   H   :   -0.000223389    0.000256357    0.000369607
  16   H   :   -0.000267115    0.000332967    0.000039310
  17   C   :    0.000275237    0.000707030    0.000241130
  18   H   :    0.000013551    0.000374269    0.000045257
  19   H   :    0.000045417    0.000435564   -0.000237475
  20   C   :    0.000314391    0.000364623    0.000189278
  21   H   :    0.000172722    0.000267170    0.000366844
  22   H   :    0.000221797    0.000358627    0.000020902
  23   C   :    0.000001133   -0.000737304   -0.000206546
  24   C   :    0.000301091    0.000033533    0.000082991
  25   C   :    0.000002553   -0.000432235   -0.000106251
  26   O   :    0.000391235    0.000326751    0.000166829
  27   C   :    0.000381999    0.000547376    0.000221176
  28   C   :   -0.000099576   -0.000456801   -0.000117133
  29   C   :    0.000050287    0.000101363    0.000054252
  30   O   :    0.000353943    0.000630310    0.000218725
  31   C   :    0.000256682   -0.000187023   -0.000036255
  32   C   :    0.000602528    0.000073026    0.000319153
  33   C   :    0.000105036   -0.000564216   -0.000391573
  34   N   :    0.000209154   -0.000532130   -0.000315169
  35   C   :    0.000469138   -0.000363575   -0.000077569
  36   C   :    0.000605570   -0.000108516    0.000172870
  37   H   :   -0.000096054   -0.000285745   -0.000270715
  38   H   :    0.000289603    0.000046699    0.000146778
  39   H   :    0.000237864   -0.000201436   -0.000050122
  40   H   :    0.000230330    0.000200656    0.000251067
  41   H   :   -0.000031631   -0.000395693   -0.000129096
  42   H   :   -0.000109108   -0.000346425   -0.000087426

Difference to translation invariance:
           :    0.0000000000   -0.0000000000   -0.0000000000

Difference to rotation invariance:
           :    0.0000000000   -0.0000000000    0.0000000000

Norm of the Dispersion gradient    ...    0.0036148677
RMS gradient                       ...    0.0003220380
MAX gradient                       ...    0.0008051875

                 ---------------------------
                 EXCITED STATE GRADIENT DONE
                 ---------------------------

------------------
CARTESIAN GRADIENT
------------------

   1   C   :   -0.000018285    0.000007459    0.000030541
   2   C   :   -0.000049014   -0.000033294   -0.000012169
   3   C   :   -0.000017020   -0.000023462   -0.000025347
   4   H   :    0.000023751    0.000013915    0.000008257
   5   H   :    0.000003258   -0.000001616   -0.000012756
   6   C   :    0.000013724    0.000018136    0.000005280
   7   H   :    0.000006200    0.000004402   -0.000009924
   8   H   :    0.000006866    0.000006863    0.000008581
   9   C   :   -0.000032584    0.000002283    0.000020422
  10   N   :    0.000014121    0.000010111   -0.000011107
  11   H   :    0.000014152   -0.000018814    0.000002603
  12   H   :   -0.000006134   -0.000010321    0.000000027
  13   C   :    0.000021466    0.000010720   -0.000019418
  14   C   :   -0.000031179    0.000046016    0.000037591
  15   H   :   -0.000024662   -0.000011914    0.000007762
  16   H   :   -0.000002532    0.000002282   -0.000000055
  17   C   :    0.000032918    0.000011564    0.000002475
  18   H   :   -0.000000875   -0.000007251    0.000006846
  19   H   :   -0.000000678   -0.000038347    0.000002430
  20   C   :    0.000004055   -0.000028829   -0.000007291
  21   H   :   -0.000025718   -0.000017804    0.000014063
  22   H   :   -0.000007103   -0.000007486    0.000017291
  23   C   :   -0.000002515   -0.000018455    0.000000438
  24   C   :    0.000036847    0.000027774    0.000026247
  25   C   :    0.000036566   -0.000016412   -0.000001240
  26   O   :    0.000002085   -0.000024275   -0.000022123
  27   C   :   -0.000081724   -0.000026809    0.000023755
  28   C   :   -0.000029980    0.000010202   -0.000017548
  29   C   :    0.000032536    0.000006024    0.000025874
  30   O   :    0.000035483    0.000049654    0.000015013
  31   C   :   -0.000008655    0.000042369    0.000014270
  32   C   :    0.000024874   -0.000006621    0.000023277
  33   C   :   -0.000008230   -0.000009514   -0.000001171
  34   N   :    0.000002692   -0.000004763    0.000001015
  35   C   :    0.000009525    0.000015732    0.000009475
  36   C   :    0.000003043   -0.000020673   -0.000000740
  37   H   :   -0.000011928   -0.000001946   -0.000004106
  38   H   :   -0.000001792    0.000005734    0.000011678
  39   H   :    0.000002914   -0.000002215    0.000007719
  40   H   :   -0.000013034   -0.000004159    0.000007450
  41   H   :    0.000000212    0.000002238   -0.000003299
  42   H   :   -0.000008919   -0.000011860   -0.000004203

Difference to translation invariance:
           :   -0.0000552740   -0.0000533609    0.0001778832

Difference to rotation invariance:
           :   -0.0005118513   -0.0002833814    0.0008258948

Norm of the Cartesian gradient     ...    0.0002204351
RMS gradient                       ...    0.0000196379
MAX gradient                       ...    0.0000817238

------------------------------------------------------------------------------
                  RELAXED CIS/TDA DENSITY POPULATION ANALYSIS
                                   IROOT 1
------------------------------------------------------------------------------
------------------------------------------------------------------------------
                           ORCA POPULATION ANALYSIS
------------------------------------------------------------------------------
Input electron density              ... NMU-1.cispre.singlet.iroot1
BaseName (.gbw .S,...)              ... NMU-1

                    ********************************
                    * MULLIKEN POPULATION ANALYSIS *
                    ********************************

-----------------------
MULLIKEN ATOMIC CHARGES
-----------------------
   0 C :   -0.112585
   1 C :   -0.161562
   2 C :   -0.231591
   3 H :    0.107894
   4 H :    0.123387
   5 C :    0.267472
   6 H :    0.130182
   7 H :    0.117503
   8 C :   -0.012970
   9 N :   -0.095605
  10 H :    0.119524
  11 H :    0.144554
  12 C :   -0.112077
  13 C :   -0.152429
  14 H :    0.117831
  15 H :    0.145572
  16 C :   -0.267136
  17 H :    0.123611
  18 H :    0.109191
  19 C :    0.137739
  20 H :    0.121983
  21 H :    0.134352
  22 C :   -0.571889
  23 C :    0.067412
  24 C :    0.477011
  25 O :   -0.381632
  26 C :    0.408580
  27 C :   -0.414283
  28 C :    0.189381
  29 O :   -0.577888
  30 C :    0.152378
  31 C :   -0.205296
  32 C :   -0.050691
  33 N :   -0.501149
  34 C :    0.050017
  35 C :   -0.075912
  36 H :    0.115672
  37 H :    0.111501
  38 H :    0.119720
  39 H :    0.126153
  40 H :    0.088813
  41 H :    0.117262
Sum of atomic charges:   -0.0000000

--------------------------------
MULLIKEN REDUCED ORBITAL CHARGES
--------------------------------
  0 C s       :     3.158196  s :     3.158196
      pz      :     1.016861  p :     2.846841
      px      :     0.811385
      py      :     1.018595
      dz2     :     0.022333  d :     0.107547
      dxz     :     0.028844
      dyz     :     0.015563
      dx2y2   :     0.016505
      dxy     :     0.024302
  1 C s       :     3.114748  s :     3.114748
      pz      :     0.978681  p :     2.956100
      px      :     1.028755
      py      :     0.948664
      dz2     :     0.019640  d :     0.090715
      dxz     :     0.009918
      dyz     :     0.024916
      dx2y2   :     0.018479
      dxy     :     0.017761
  2 C s       :     3.140313  s :     3.140313
      pz      :     1.040936  p :     3.001807
      px      :     0.951180
      py      :     1.009691
      dz2     :     0.012174  d :     0.089471
      dxz     :     0.019213
      dyz     :     0.016304
      dx2y2   :     0.022986
      dxy     :     0.018793
  3 H s       :     0.868771  s :     0.868771
      pz      :     0.013120  p :     0.023335
      px      :     0.004883
      py      :     0.005332
  4 H s       :     0.852697  s :     0.852697
      pz      :     0.004531  p :     0.023916
      px      :     0.013968
      py      :     0.005417
  5 C s       :     3.060436  s :     3.060436
      pz      :     0.951375  p :     2.523857
      px      :     0.767981
      py      :     0.804501
      dz2     :     0.009892  d :     0.148234
      dxz     :     0.024011
      dyz     :     0.024822
      dx2y2   :     0.046818
      dxy     :     0.042691
  6 H s       :     0.845955  s :     0.845955
      pz      :     0.009558  p :     0.023862
      px      :     0.003966
      py      :     0.010338
  7 H s       :     0.859116  s :     0.859116
      pz      :     0.011166  p :     0.023381
      px      :     0.005303
      py      :     0.006911
  8 C s       :     3.017594  s :     3.017594
      pz      :     0.950369  p :     2.809554
      px      :     0.900574
      py      :     0.958611
      dz2     :     0.010062  d :     0.185823
      dxz     :     0.038330
      dyz     :     0.030155
      dx2y2   :     0.052552
      dxy     :     0.054724
  9 N s       :     3.385999  s :     3.385999
      pz      :     1.379011  p :     3.607832
      px      :     1.106379
      py      :     1.122441
      dz2     :     0.009589  d :     0.101774
      dxz     :     0.016646
      dyz     :     0.014484
      dx2y2   :     0.029726
      dxy     :     0.031329
 10 H s       :     0.857625  s :     0.857625
      pz      :     0.012422  p :     0.022851
      px      :     0.005078
      py      :     0.005351
 11 H s       :     0.831663  s :     0.831663
      pz      :     0.005120  p :     0.023784
      px      :     0.007978
      py      :     0.010686
 12 C s       :     3.157260  s :     3.157260
      pz      :     1.002555  p :     2.847713
      px      :     1.043544
      py      :     0.801614
      dz2     :     0.025849  d :     0.107104
      dxz     :     0.013206
      dyz     :     0.021029
      dx2y2   :     0.024056
      dxy     :     0.022963
 13 C s       :     3.109005  s :     3.109005
      pz      :     1.029287  p :     2.952576
      px      :     0.914092
      py      :     1.009197
      dz2     :     0.020515  d :     0.090848
      dxz     :     0.015782
      dyz     :     0.009129
      dx2y2   :     0.026046
      dxy     :     0.019376
 14 H s       :     0.859307  s :     0.859307
      pz      :     0.015570  p :     0.022862
      px      :     0.004290
      py      :     0.003002
 15 H s       :     0.830564  s :     0.830564
      pz      :     0.005163  p :     0.023864
      px      :     0.011860
      py      :     0.006842
 16 C s       :     3.162604  s :     3.162604
      pz      :     1.031956  p :     3.013751
      px      :     1.036808
      py      :     0.944986
      dz2     :     0.018688  d :     0.090781
      dxz     :     0.008151
      dyz     :     0.019519
      dx2y2   :     0.023460
      dxy     :     0.020963
 17 H s       :     0.852453  s :     0.852453
      pz      :     0.006121  p :     0.023936
      px      :     0.003874
      py      :     0.013941
 18 H s       :     0.867478  s :     0.867478
      pz      :     0.015062  p :     0.023331
      px      :     0.003731
      py      :     0.004538
 19 C s       :     3.276541  s :     3.276541
      pz      :     0.952573  p :     2.451516
      px      :     0.734885
      py      :     0.764057
      dz2     :     0.015492  d :     0.134205
      dxz     :     0.024607
      dyz     :     0.021418
      dx2y2   :     0.026024
      dxy     :     0.046664
 20 H s       :     0.854522  s :     0.854522
      pz      :     0.015377  p :     0.023495
      px      :     0.004373
      py      :     0.003744
 21 H s       :     0.841407  s :     0.841407
      pz      :     0.005345  p :     0.024242
      px      :     0.013356
      py      :     0.005540
 22 C s       :     3.507713  s :     3.507713
      pz      :     1.003168  p :     2.971657
      px      :     1.031078
      py      :     0.937411
      dz2     :     0.007170  d :     0.092518
      dxz     :     0.024394
      dyz     :     0.007385
      dx2y2   :     0.032135
      dxy     :     0.021433
 23 C s       :     3.172892  s :     3.172892
      pz      :     0.934948  p :     2.572760
      px      :     0.740041
      py      :     0.897770
      dz2     :     0.014156  d :     0.186935
      dxz     :     0.038050
      dyz     :     0.028898
      dx2y2   :     0.058293
      dxy     :     0.047539
 24 C s       :     2.998725  s :     2.998725
      pz      :     0.873074  p :     2.372425
      px      :     0.697722
      py      :     0.801629
      dz2     :     0.012998  d :     0.151839
      dxz     :     0.034685
      dyz     :     0.023190
      dx2y2   :     0.050758
      dxy     :     0.030207
 25 O s       :     3.820442  s :     3.820442
      pz      :     1.678000  p :     4.516121
      px      :     1.227831
      py      :     1.610290
      dz2     :     0.005693  d :     0.045069
      dxz     :     0.009222
      dyz     :     0.004356
      dx2y2   :     0.007745
      dxy     :     0.018052
 26 C s       :     2.913320  s :     2.913320
      pz      :     0.839543  p :     2.428173
      px      :     0.663097
      py      :     0.925533
      dz2     :     0.015479  d :     0.249927
      dxz     :     0.045118
      dyz     :     0.037876
      dx2y2   :     0.096561
      dxy     :     0.054893
 27 C s       :     3.314332  s :     3.314332
      pz      :     1.086121  p :     3.013462
      px      :     0.976321
      py      :     0.951019
      dz2     :     0.007672  d :     0.086490
      dxz     :     0.023495
      dyz     :     0.007531
      dx2y2   :     0.025584
      dxy     :     0.022208
 28 C s       :     3.126427  s :     3.126427
      pz      :     1.037572  p :     2.548733
      px      :     0.748260
      py      :     0.762902
      dz2     :     0.013458  d :     0.135458
      dxz     :     0.028042
      dyz     :     0.016919
      dx2y2   :     0.047806
      dxy     :     0.029234
 29 O s       :     3.875183  s :     3.875183
      pz      :     1.491382  p :     4.669884
      px      :     1.527333
      py      :     1.651170
      dz2     :     0.004305  d :     0.032821
      dxz     :     0.007947
      dyz     :     0.003910
      dx2y2   :     0.007212
      dxy     :     0.009447
 30 C s       :     3.158280  s :     3.158280
      pz      :     0.847521  p :     2.539270
      px      :     0.798464
      py      :     0.893285
      dz2     :     0.020511  d :     0.150072
      dxz     :     0.035341
      dyz     :     0.022973
      dx2y2   :     0.031589
      dxy     :     0.039658
 31 C s       :     3.213747  s :     3.213747
      pz      :     0.948282  p :     2.901677
      px      :     0.977248
      py      :     0.976147
      dz2     :     0.010183  d :     0.089872
      dxz     :     0.021557
      dyz     :     0.009307
      dx2y2   :     0.025683
      dxy     :     0.023141
 32 C s       :     3.180979  s :     3.180979
      pz      :     0.928905  p :     2.770047
      px      :     0.926962
      py      :     0.914180
      dz2     :     0.011223  d :     0.099666
      dxz     :     0.020237
      dyz     :     0.016787
      dx2y2   :     0.032277
      dxy     :     0.019142
 33 N s       :     3.575167  s :     3.575167
      pz      :     1.298626  p :     3.850312
      px      :     1.113389
      py      :     1.438297
      dz2     :     0.011387  d :     0.075670
      dxz     :     0.019268
      dyz     :     0.007969
      dx2y2   :     0.015241
      dxy     :     0.021805
 34 C s       :     3.126093  s :     3.126093
      pz      :     0.902021  p :     2.728812
      px      :     0.885782
      py      :     0.941008
      dz2     :     0.020717  d :     0.095079
      dxz     :     0.015774
      dyz     :     0.013715
      dx2y2   :     0.017248
      dxy     :     0.027625
 35 C s       :     3.145872  s :     3.145872
      pz      :     0.960635  p :     2.848074
      px      :     0.958139
      py      :     0.929301
      dz2     :     0.011211  d :     0.081965
      dxz     :     0.015756
      dyz     :     0.014869
      dx2y2   :     0.023584
      dxy     :     0.016546
 36 H s       :     0.858326  s :     0.858326
      pz      :     0.008521  p :     0.026002
      px      :     0.012824
      py      :     0.004657
 37 H s       :     0.862304  s :     0.862304
      pz      :     0.007878  p :     0.026195
      px      :     0.013744
      py      :     0.004574
 38 H s       :     0.855109  s :     0.855109
      pz      :     0.004323  p :     0.025171
      px      :     0.011954
      py      :     0.008894
 39 H s       :     0.845745  s :     0.845745
      pz      :     0.009238  p :     0.028101
      px      :     0.003947
      py      :     0.014917
 40 H s       :     0.884849  s :     0.884849
      pz      :     0.006603  p :     0.026338
      px      :     0.003482
      py      :     0.016253
 41 H s       :     0.854411  s :     0.854411
      pz      :     0.007399  p :     0.028327
      px      :     0.003922
      py      :     0.017005


                     *******************************
                     * LOEWDIN POPULATION ANALYSIS *
                     *******************************

----------------------
LOEWDIN ATOMIC CHARGES
----------------------
   0 C :   -0.178381
   1 C :   -0.213194
   2 C :   -0.183423
   3 H :    0.132274
   4 H :    0.134325
   5 C :   -0.099003
   6 H :    0.138608
   7 H :    0.141518
   8 C :   -0.060689
   9 N :    0.172671
  10 H :    0.135604
  11 H :    0.136411
  12 C :   -0.177777
  13 C :   -0.211715
  14 H :    0.135153
  15 H :    0.136161
  16 C :   -0.182469
  17 H :    0.134832
  18 H :    0.132801
  19 C :   -0.060494
  20 H :    0.144481
  21 H :    0.139660
  22 C :   -0.070170
  23 C :   -0.101963
  24 C :   -0.108104
  25 O :    0.197939
  26 C :   -0.255435
  27 C :   -0.093997
  28 C :   -0.107515
  29 O :   -0.084037
  30 C :   -0.110242
  31 C :   -0.077148
  32 C :   -0.138608
  33 N :   -0.004162
  34 C :   -0.182961
  35 C :   -0.145648
  36 H :    0.131670
  37 H :    0.141709
  38 H :    0.128313
  39 H :    0.143505
  40 H :    0.148263
  41 H :    0.141237

-------------------------------
LOEWDIN REDUCED ORBITAL CHARGES
-------------------------------
  0 C s       :     2.781508  s :     2.781508
      pz      :     1.049165  p :     2.959612
      px      :     0.881360
      py      :     1.029088
      dz2     :     0.082359  d :     0.437261
      dxz     :     0.100325
      dyz     :     0.069951
      dx2y2   :     0.068794
      dxy     :     0.115831
  1 C s       :     2.779862  s :     2.779862
      pz      :     1.024822  p :     3.067224
      px      :     1.023169
      py      :     1.019233
      dz2     :     0.085288  d :     0.366108
      dxz     :     0.039306
      dyz     :     0.090150
      dx2y2   :     0.079552
      dxy     :     0.071812
  2 C s       :     2.767625  s :     2.767625
      pz      :     1.034964  p :     3.046879
      px      :     0.997376
      py      :     1.014539
      dz2     :     0.041315  d :     0.368918
      dxz     :     0.069113
      dyz     :     0.089269
      dx2y2   :     0.087463
      dxy     :     0.081758
  3 H s       :     0.809268  s :     0.809268
      pz      :     0.029221  p :     0.058458
      px      :     0.014151
      py      :     0.015085
  4 H s       :     0.806662  s :     0.806662
      pz      :     0.012175  p :     0.059013
      px      :     0.031671
      py      :     0.015167
  5 C s       :     2.719632  s :     2.719632
      pz      :     0.881615  p :     2.888167
      px      :     1.014003
      py      :     0.992549
      dz2     :     0.038869  d :     0.491205
      dxz     :     0.081415
      dyz     :     0.071997
      dx2y2   :     0.156311
      dxy     :     0.142612
  6 H s       :     0.802786  s :     0.802786
      pz      :     0.024059  p :     0.058606
      px      :     0.011577
      py      :     0.022970
  7 H s       :     0.800240  s :     0.800240
      pz      :     0.027259  p :     0.058242
      px      :     0.014561
      py      :     0.016422
  8 C s       :     2.701147  s :     2.701147
      pz      :     0.876313  p :     2.776524
      px      :     0.932385
      py      :     0.967826
      dz2     :     0.050506  d :     0.583019
      dxz     :     0.106800
      dyz     :     0.086861
      dx2y2   :     0.161842
      dxy     :     0.177009
  9 N s       :     2.916091  s :     2.916091
      pz      :     1.290420  p :     3.629183
      px      :     1.162694
      py      :     1.176069
      dz2     :     0.025605  d :     0.282055
      dxz     :     0.046843
      dyz     :     0.038400
      dx2y2   :     0.087228
      dxy     :     0.083979
 10 H s       :     0.805907  s :     0.805907
      pz      :     0.030141  p :     0.058489
      px      :     0.012960
      py      :     0.015388
 11 H s       :     0.804413  s :     0.804413
      pz      :     0.014871  p :     0.059177
      px      :     0.018056
      py      :     0.026250
 12 C s       :     2.780939  s :     2.780939
      pz      :     1.021007  p :     2.959890
      px      :     1.049715
      py      :     0.889168
      dz2     :     0.112704  d :     0.436948
      dxz     :     0.045568
      dyz     :     0.079925
      dx2y2   :     0.097722
      dxy     :     0.101029
 13 C s       :     2.779493  s :     2.779493
      pz      :     1.039438  p :     3.065866
      px      :     1.011398
      py      :     1.015030
      dz2     :     0.084850  d :     0.366355
      dxz     :     0.060431
      dyz     :     0.045541
      dx2y2   :     0.102580
      dxy     :     0.072953
 14 H s       :     0.806299  s :     0.806299
      pz      :     0.037115  p :     0.058548
      px      :     0.012328
      py      :     0.009105
 15 H s       :     0.804561  s :     0.804561
      pz      :     0.014752  p :     0.059278
      px      :     0.028108
      py      :     0.016418
 16 C s       :     2.765913  s :     2.765913
      pz      :     1.031869  p :     3.048326
      px      :     1.025885
      py      :     0.990572
      dz2     :     0.089129  d :     0.368230
      dxz     :     0.037480
      dyz     :     0.059338
      dx2y2   :     0.096049
      dxy     :     0.086233
 17 H s       :     0.806165  s :     0.806165
      pz      :     0.016942  p :     0.059003
      px      :     0.011820
      py      :     0.030241
 18 H s       :     0.808702  s :     0.808702
      pz      :     0.034720  p :     0.058497
      px      :     0.011566
      py      :     0.012211
 19 C s       :     2.716371  s :     2.716371
      pz      :     0.888336  p :     2.874076
      px      :     0.996886
      py      :     0.988853
      dz2     :     0.044293  d :     0.470047
      dxz     :     0.076972
      dyz     :     0.067572
      dx2y2   :     0.132660
      dxy     :     0.148550
 20 H s       :     0.797150  s :     0.797150
      pz      :     0.034815  p :     0.058369
      px      :     0.012314
      py      :     0.011241
 21 H s       :     0.800632  s :     0.800632
      pz      :     0.015319  p :     0.059708
      px      :     0.030166
      py      :     0.014223
 22 C s       :     2.759769  s :     2.759769
      pz      :     0.926864  p :     2.943585
      px      :     1.025032
      py      :     0.991689
      dz2     :     0.024463  d :     0.366816
      dxz     :     0.076798
      dyz     :     0.027016
      dx2y2   :     0.143210
      dxy     :     0.095328
 23 C s       :     2.707736  s :     2.707736
      pz      :     0.904426  p :     2.762113
      px      :     0.851880
      py      :     1.005808
      dz2     :     0.058433  d :     0.632114
      dxz     :     0.120509
      dyz     :     0.082031
      dx2y2   :     0.172438
      dxy     :     0.198704
 24 C s       :     2.707709  s :     2.707709
      pz      :     0.865969  p :     2.878542
      px      :     1.015574
      py      :     0.996999
      dz2     :     0.044882  d :     0.521853
      dxz     :     0.097997
      dyz     :     0.075496
      dx2y2   :     0.159252
      dxy     :     0.144227
 25 O s       :     3.280497  s :     3.280497
      pz      :     1.582535  p :     4.420309
      px      :     1.270540
      py      :     1.567233
      dz2     :     0.012247  d :     0.101255
      dxz     :     0.021953
      dyz     :     0.006486
      dx2y2   :     0.024572
      dxy     :     0.035997
 26 C s       :     2.746957  s :     2.746957
      pz      :     0.820567  p :     2.639532
      px      :     0.843132
      py      :     0.975832
      dz2     :     0.079634  d :     0.868946
      dxz     :     0.147192
      dyz     :     0.109582
      dx2y2   :     0.271630
      dxy     :     0.260908
 27 C s       :     2.765265  s :     2.765265
      pz      :     0.964690  p :     2.971649
      px      :     1.009985
      py      :     0.996974
      dz2     :     0.026904  d :     0.357083
      dxz     :     0.071119
      dyz     :     0.028601
      dx2y2   :     0.134953
      dxy     :     0.095506
 28 C s       :     2.719007  s :     2.719007
      pz      :     0.918017  p :     2.909005
      px      :     1.010151
      py      :     0.980836
      dz2     :     0.042046  d :     0.479504
      dxz     :     0.090980
      dyz     :     0.059677
      dx2y2   :     0.154545
      dxy     :     0.132255
 29 O s       :     3.440758  s :     3.440758
      pz      :     1.431904  p :     4.576900
      px      :     1.548301
      py      :     1.596695
      dz2     :     0.008332  d :     0.066379
      dxz     :     0.013666
      dyz     :     0.006822
      dx2y2   :     0.015992
      dxy     :     0.021567
 30 C s       :     2.717802  s :     2.717802
      pz      :     0.937953  p :     2.900685
      px      :     0.992882
      py      :     0.969851
      dz2     :     0.065223  d :     0.491755
      dxz     :     0.101554
      dyz     :     0.076532
      dx2y2   :     0.126492
      dxy     :     0.121954
 31 C s       :     2.776528  s :     2.776528
      pz      :     0.917829  p :     2.928726
      px      :     1.032801
      py      :     0.978095
      dz2     :     0.037238  d :     0.371894
      dxz     :     0.078669
      dyz     :     0.056358
      dx2y2   :     0.112202
      dxy     :     0.087427
 32 C s       :     2.781612  s :     2.781612
      pz      :     0.938482  p :     2.888036
      px      :     0.969449
      py      :     0.980105
      dz2     :     0.048778  d :     0.468961
      dxz     :     0.096837
      dyz     :     0.069108
      dx2y2   :     0.133741
      dxy     :     0.120496
 33 N s       :     3.078216  s :     3.078216
      pz      :     1.206159  p :     3.709360
      px      :     1.170373
      py      :     1.332828
      dz2     :     0.025508  d :     0.216586
      dxz     :     0.055331
      dyz     :     0.017970
      dx2y2   :     0.057215
      dxy     :     0.060562
 34 C s       :     2.791049  s :     2.791049
      pz      :     0.950550  p :     2.920207
      px      :     0.963606
      py      :     1.006051
      dz2     :     0.081305  d :     0.471705
      dxz     :     0.085446
      dyz     :     0.069129
      dx2y2   :     0.087707
      dxy     :     0.148119
 35 C s       :     2.782758  s :     2.782758
      pz      :     0.958025  p :     2.993850
      px      :     1.012159
      py      :     1.023667
      dz2     :     0.042567  d :     0.369041
      dxz     :     0.071176
      dyz     :     0.061876
      dx2y2   :     0.108392
      dxy     :     0.085030
 36 H s       :     0.806266  s :     0.806266
      pz      :     0.020274  p :     0.062064
      px      :     0.028804
      py      :     0.012987
 37 H s       :     0.797088  s :     0.797088
      pz      :     0.018550  p :     0.061203
      px      :     0.029485
      py      :     0.013168
 38 H s       :     0.811288  s :     0.811288
      pz      :     0.012338  p :     0.060399
      px      :     0.026766
      py      :     0.021295
 39 H s       :     0.790043  s :     0.790043
      pz      :     0.021498  p :     0.066452
      px      :     0.012175
      py      :     0.032780
 40 H s       :     0.790452  s :     0.790452
      pz      :     0.016307  p :     0.061284
      px      :     0.010821
      py      :     0.034156
 41 H s       :     0.792522  s :     0.792522
      pz      :     0.018614  p :     0.066242
      px      :     0.011475
      py      :     0.036153


                      *****************************
                      * MAYER POPULATION ANALYSIS *
                      *****************************

  NA   - Mulliken gross atomic population
  ZA   - Total nuclear charge
  QA   - Mulliken gross atomic charge
  VA   - Mayer's total valence
  BVA  - Mayer's bonded valence
  FA   - Mayer's free valence

  ATOM       NA         ZA         QA         VA         BVA        FA
  0 C      6.1126     6.0000    -0.1126     3.9017     3.8922     0.0095
  1 C      6.1616     6.0000    -0.1616     3.9458     3.9412     0.0046
  2 C      6.2316     6.0000    -0.2316     3.9189     3.9137     0.0052
  3 H      0.8921     1.0000     0.1079     0.9682     0.9670     0.0012
  4 H      0.8766     1.0000     0.1234     0.9586     0.9579     0.0007
  5 C      5.7325     6.0000     0.2675     3.6805     3.6023     0.0782
  6 H      0.8698     1.0000     0.1302     0.9533     0.9506     0.0027
  7 H      0.8825     1.0000     0.1175     0.9545     0.9502     0.0043
  8 C      6.0130     6.0000    -0.0130     4.0748     3.9561     0.1186
  9 N      7.0956     7.0000    -0.0956     3.4341     3.2567     0.1774
 10 H      0.8805     1.0000     0.1195     0.9567     0.9308     0.0259
 11 H      0.8554     1.0000     0.1446     0.9478     0.9432     0.0045
 12 C      6.1121     6.0000    -0.1121     3.8948     3.8853     0.0094
 13 C      6.1524     6.0000    -0.1524     3.9482     3.9431     0.0051
 14 H      0.8822     1.0000     0.1178     0.9591     0.9327     0.0264
 15 H      0.8544     1.0000     0.1456     0.9478     0.9446     0.0032
 16 C      6.2671     6.0000    -0.2671     3.9493     3.9452     0.0041
 17 H      0.8764     1.0000     0.1236     0.9599     0.9587     0.0012
 18 H      0.8908     1.0000     0.1092     0.9677     0.9663     0.0013
 19 C      5.8623     6.0000     0.1377     3.6850     3.5809     0.1041
 20 H      0.8780     1.0000     0.1220     0.9573     0.9512     0.0061
 21 H      0.8656     1.0000     0.1344     0.9583     0.9559     0.0023
 22 C      6.5719     6.0000    -0.5719     3.8139     3.7206     0.0933
 23 C      5.9326     6.0000     0.0674     3.8954     3.8158     0.0796
 24 C      5.5230     6.0000     0.4770     3.5767     3.4419     0.1348
 25 O      8.3816     8.0000    -0.3816     2.0846     2.0459     0.0387
 26 C      5.5914     6.0000     0.4086     4.2165     4.1506     0.0659
 27 C      6.4143     6.0000    -0.4143     3.7169     3.3346     0.3823
 28 C      5.8106     6.0000     0.1894     3.4332     3.2645     0.1687
 29 O      8.5779     8.0000    -0.5779     1.9787     1.9220     0.0567
 30 C      5.8476     6.0000     0.1524     3.7769     3.7130     0.0638
 31 C      6.2053     6.0000    -0.2053     3.9977     3.9465     0.0511
 32 C      6.0507     6.0000    -0.0507     4.0318     3.9632     0.0686
 33 N      7.5011     7.0000    -0.5011     3.0426     3.0367     0.0059
 34 C      5.9500     6.0000     0.0500     3.9840     3.9070     0.0769
 35 C      6.0759     6.0000    -0.0759     3.9242     3.9035     0.0208
 36 H      0.8843     1.0000     0.1157     0.9947     0.9901     0.0047
 37 H      0.8885     1.0000     0.1115     0.9692     0.9686     0.0006
 38 H      0.8803     1.0000     0.1197     0.9757     0.9743     0.0015
 39 H      0.8738     1.0000     0.1262     1.0008     1.0003     0.0005
 40 H      0.9112     1.0000     0.0888     0.9908     0.9895     0.0013
 41 H      0.8827     1.0000     0.1173     0.9882     0.9832     0.0050

  Mayer bond orders larger than 0.100000
B(  0-C ,  1-C ) :   0.9987 B(  0-C ,  9-N ) :   0.9572 B(  0-C , 10-H ) :   0.9287 
B(  0-C , 11-H ) :   0.9441 B(  1-C ,  2-C ) :   1.0215 B(  1-C ,  3-H ) :   0.9662 
B(  1-C ,  4-H ) :   0.9580 B(  2-C ,  5-C ) :   1.0002 B(  2-C ,  6-H ) :   0.9527 
B(  2-C ,  7-H ) :   0.9402 B(  5-C ,  8-C ) :   1.2396 B(  5-C , 22-C ) :   1.3485 
B(  8-C ,  9-N ) :   1.3284 B(  8-C , 19-C ) :   1.2090 B(  9-N , 12-C ) :   0.9548 
B( 12-C , 13-C ) :   0.9932 B( 12-C , 14-H ) :   0.9283 B( 12-C , 15-H ) :   0.9470 
B( 13-C , 16-C ) :   1.0333 B( 13-C , 17-H ) :   0.9597 B( 13-C , 18-H ) :   0.9652 
B( 16-C , 19-C ) :   1.0375 B( 16-C , 20-H ) :   0.9447 B( 16-C , 21-H ) :   0.9457 
B( 19-C , 23-C ) :   1.3277 B( 22-C , 24-C ) :   1.0805 B( 22-C , 40-H ) :   1.0600 
B( 23-C , 24-C ) :   1.3435 B( 23-C , 25-O ) :   1.0032 B( 24-C , 27-C ) :   1.1119 
B( 25-O , 26-C ) :   1.0626 B( 26-C , 28-C ) :   1.1586 B( 26-C , 29-O ) :   1.8520 
B( 27-C , 28-C ) :   1.1643 B( 27-C , 41-H ) :   0.9760 B( 28-C , 30-C ) :   1.0734 
B( 30-C , 31-C ) :   1.3344 B( 30-C , 32-C ) :   1.2881 B( 31-C , 35-C ) :   1.5079 
B( 31-C , 39-H ) :   0.9573 B( 32-C , 33-N ) :   1.5502 B( 32-C , 36-H ) :   0.9679 
B( 33-N , 34-C ) :   1.4312 B( 34-C , 35-C ) :   1.3654 B( 34-C , 38-H ) :   0.9694 
B( 35-C , 37-H ) :   0.9660 


-------
TIMINGS
-------

Total TD-DFT gradient time  ....      485.261 sec

Fock matrix formation       ....     136.532 sec  ( 28.1%)
  Coulomb formation         ....     126.186 sec  ( 92.4% of F)
  XC integration            ....      10.345 sec  (  7.6% of F)
Z-vector equation           ....     158.809 sec  ( 32.7%)
Densities                   ....       0.000 sec  (  0.0%)
One electron gradient       ....       1.713 sec  (  0.4%)
RI-J Coulomb gradient       ....      11.049 sec  (  2.3%)
COSX gradient               ....      27.703 sec  (  5.7%)
XC gradient                 ....      95.342 sec  ( 19.6%)
CPCM gradient               ....      10.519 sec  (  2.2%)
   A-Matrix (El+Nuc)        ....       0.244 sec  (  0.1%)
   Potential                ....      10.275 sec  (  2.1%)

Maximum memory used throughout the entire CIS-calculation: 348.6 MB
=> NOW LEAVING ORCA_CIS


-------------------------------------------------------------------------------
                          DFT DISPERSION CORRECTION                            
                                                                               
                              DFTD3 V3.1  Rev 1                                
                          USING Becke-Johnson damping                          
-------------------------------------------------------------------------------
The B3LYP functional is recognized
Active option DFTDOPT                   ...         4   

molecular C6(AA) [au] = 20174.609862 


            DFT-D V3
 parameters
 s6 scaling factor         :     1.0000 
 a1 scaling factor         :     0.3981 
 s8 scaling factor         :     1.9889 
 a2 scaling factor         :     4.4211 
 ad hoc parameters k1-k3   :    16.0000     1.3333    -4.0000 

 Edisp/kcal,au: -61.604507729051  -0.098173021610 
 E6   /kcal   : -28.904289633 
 E8   /kcal   : -32.700218096 
 % E8         :  53.080885314 

-------------------------   ----------------
Dispersion correction           -0.098173022
-------------------------   ----------------


-------------------------   --------------------
FINAL SINGLE POINT ENERGY     -1032.695280306525
-------------------------   --------------------

                                *** OPTIMIZATION RUN DONE ***


------------------------------------------------------------------------------
                              ORCA PROPERTY CALCULATIONS
------------------------------------------------------------------------------

GBWName                                 ... NMU-1.gbw
Number of atoms                         ...     42
Number of basis functions               ...    684
Max core memory                         ...   1024 MB

Electric properties:
Dipole moment                           ... YES
Quadrupole moment                       ...  NO
Static polarizability (Dipole/Dipole)   ...  NO
Static polarizability (Dipole/Quad.)    ...  NO
Static polarizability (Quad./Quad.)     ...  NO
Static polarizability (Velocity)        ...  NO

Atomic electric properties:
Dipole moment                           ...  NO
Quadrupole moment                       ...  NO
Static polarizability                   ...  NO

Choice of electric origin               ... Center of mass
Position of electric origin             ...    -2.698077    -5.096035     0.105871

General magnetic properties:
Magnetizability                         ...  NO

EPR properties:
g-Tensor (aka g-matrix)                 ...  NO
Zero-Field splitting spin-orbit         ...  NO
Zero-field splitting spin-spin          ...  NO
Hyperfine couplings                     ...  NO (   0 nuclei)
Quadrupole couplings                    ...  NO (   0 nuclei)
Contact density                         ...  NO (   0 nuclei)

NMR properties:
Chemical shifts                         ...  NO (   0 nuclei)
Spin-rotation constants                 ...  NO (   0 nuclei)
Spin-spin couplings                     ...  NO (   0 nuclei,    0 pairs)

Choice of magnetic origin               ... GIAO
Position of magnetic origin             ...     0.000000     0.000000     0.000000

Properties with geometric perturbations:
SCF Hessian                             ...  NO
IR spectrum                             ... YES
VCD spectrum                            ...  NO
X-ray spectroscopy properties:
SCF XES/XAS/RIXS spectra                ...  NO


-------------
DIPOLE MOMENT
-------------

Method             : SCF
Type of density    : Electron Density
Multiplicity       :   1
Irrep              :   0
Energy             : -1032.6975580572100171 Eh
Relativity type    : 
Basis              : AO
                                X                 Y                 Z
Electronic contribution:     19.878354976      -6.423491447       1.318996419
Nuclear contribution   :    -24.885424197       7.137141066      -1.308048061
                        -----------------------------------------
Total Dipole Moment    :     -5.007069221       0.713649619       0.010948357
                        -----------------------------------------
Magnitude (a.u.)       :      5.057683050
Magnitude (Debye)      :     12.855608660



--------------------
Rotational spectrum 
--------------------
 
Rotational constants in cm-1:             0.021264             0.003960             0.003376 
Rotational constants in MHz :           637.469057           118.722120           101.197650 

Dipole components along the rotational axes: 
x,y,z [a.u.] :    -4.872596    -1.240977     0.545839 
x,y,z [Debye]:   -12.385155    -3.154312     1.387413 

 

-------------
DIPOLE MOMENT
-------------

Method             : TDA/CIS
Type of density    : Electron Density
Level              : Relaxed density
State              :   1
Multiplicity       :   1
Irrep              :   0
Energy             :     0.0000000000000000 Eh
Relativity type    : 
Basis              : AO
                                X                 Y                 Z
Electronic contribution:     17.999770009      -5.272819556       1.430740440
Nuclear contribution   :    -24.885424197       7.137141066      -1.308048061
                        -----------------------------------------
Total Dipole Moment    :     -6.885654188       1.864321510       0.122692378
                        -----------------------------------------
Magnitude (a.u.)       :      7.134632556
Magnitude (Debye)      :     18.134794763



--------------------
Rotational spectrum 
--------------------
 
Rotational constants in cm-1:             0.021264             0.003960             0.003376 
Rotational constants in MHz :           637.469057           118.722120           101.197650 

Dipole components along the rotational axes: 
x,y,z [a.u.] :    -7.053607    -0.911642     0.564371 
x,y,z [Debye]:   -17.928845    -2.317210     1.434517 

 

Dipole moment calculation done in   0.1 sec 

Maximum memory used throughout the entire PROP-calculation: 84.9 MB

----------------------------------------------------------------------------
                           ORCA NUMERICAL FREQUENCIES
----------------------------------------------------------------------------

Number of atoms                ... 42
Central differences            ... used
Number of displacements        ... 252
Numerical increment            ... 5.000e-03 bohr
IR-spectrum generation         ... on
Raman-spectrum generation      ... off
Surface Crossing Hessian       ... off

The output will be reduced. Please look at the following files:
SCF program output             ... >NMU-1.lastscf
Integral program output        ... >NMU-1.lastint
Gradient program output        ... >NMU-1.lastgrad
Dipole moment program output   ... >NMU-1.lastmom

	<< Calculating gradient on displaced geometry   1 (of 252) >>
	<< Calculating gradient on displaced geometry   2 (of 252) >>
	<< Calculating gradient on displaced geometry   3 (of 252) >>
	<< Calculating gradient on displaced geometry   4 (of 252) >>
	<< Calculating gradient on displaced geometry   5 (of 252) >>
	<< Calculating gradient on displaced geometry   6 (of 252) >>
	<< Calculating gradient on displaced geometry   7 (of 252) >>
	<< Calculating gradient on displaced geometry   8 (of 252) >>
	<< Calculating gradient on displaced geometry   9 (of 252) >>
	<< Calculating gradient on displaced geometry  10 (of 252) >>
	<< Calculating gradient on displaced geometry  11 (of 252) >>
	<< Calculating gradient on displaced geometry  12 (of 252) >>
	<< Calculating gradient on displaced geometry  13 (of 252) >>
	<< Calculating gradient on displaced geometry  14 (of 252) >>
	<< Calculating gradient on displaced geometry  15 (of 252) >>
	<< Calculating gradient on displaced geometry  16 (of 252) >>
	<< Calculating gradient on displaced geometry  17 (of 252) >>
	<< Calculating gradient on displaced geometry  18 (of 252) >>
	<< Calculating gradient on displaced geometry  19 (of 252) >>
	<< Calculating gradient on displaced geometry  20 (of 252) >>
	<< Calculating gradient on displaced geometry  21 (of 252) >>
	<< Calculating gradient on displaced geometry  22 (of 252) >>
	<< Calculating gradient on displaced geometry  23 (of 252) >>
	<< Calculating gradient on displaced geometry  24 (of 252) >>
	<< Calculating gradient on displaced geometry  25 (of 252) >>
	<< Calculating gradient on displaced geometry  26 (of 252) >>
	<< Calculating gradient on displaced geometry  27 (of 252) >>
	<< Calculating gradient on displaced geometry  28 (of 252) >>
	<< Calculating gradient on displaced geometry  29 (of 252) >>
	<< Calculating gradient on displaced geometry  30 (of 252) >>
	<< Calculating gradient on displaced geometry  31 (of 252) >>
	<< Calculating gradient on displaced geometry  32 (of 252) >>
	<< Calculating gradient on displaced geometry  33 (of 252) >>
	<< Calculating gradient on displaced geometry  34 (of 252) >>
	<< Calculating gradient on displaced geometry  35 (of 252) >>
	<< Calculating gradient on displaced geometry  36 (of 252) >>
	<< Calculating gradient on displaced geometry  37 (of 252) >>
	<< Calculating gradient on displaced geometry  38 (of 252) >>
	<< Calculating gradient on displaced geometry  39 (of 252) >>
	<< Calculating gradient on displaced geometry  40 (of 252) >>
	<< Calculating gradient on displaced geometry  41 (of 252) >>
	<< Calculating gradient on displaced geometry  42 (of 252) >>
	<< Calculating gradient on displaced geometry  43 (of 252) >>
	<< Calculating gradient on displaced geometry  44 (of 252) >>
	<< Calculating gradient on displaced geometry  45 (of 252) >>
	<< Calculating gradient on displaced geometry  46 (of 252) >>
	<< Calculating gradient on displaced geometry  47 (of 252) >>
	<< Calculating gradient on displaced geometry  48 (of 252) >>
	<< Calculating gradient on displaced geometry  49 (of 252) >>
	<< Calculating gradient on displaced geometry  50 (of 252) >>
	<< Calculating gradient on displaced geometry  51 (of 252) >>
	<< Calculating gradient on displaced geometry  52 (of 252) >>
	<< Calculating gradient on displaced geometry  53 (of 252) >>
	<< Calculating gradient on displaced geometry  54 (of 252) >>
	<< Calculating gradient on displaced geometry  55 (of 252) >>
	<< Calculating gradient on displaced geometry  56 (of 252) >>
	<< Calculating gradient on displaced geometry  57 (of 252) >>
	<< Calculating gradient on displaced geometry  58 (of 252) >>
	<< Calculating gradient on displaced geometry  59 (of 252) >>
	<< Calculating gradient on displaced geometry  60 (of 252) >>
	<< Calculating gradient on displaced geometry  61 (of 252) >>
	<< Calculating gradient on displaced geometry  62 (of 252) >>
	<< Calculating gradient on displaced geometry  63 (of 252) >>
	<< Calculating gradient on displaced geometry  64 (of 252) >>
	<< Calculating gradient on displaced geometry  65 (of 252) >>
	<< Calculating gradient on displaced geometry  66 (of 252) >>
	<< Calculating gradient on displaced geometry  67 (of 252) >>
	<< Calculating gradient on displaced geometry  68 (of 252) >>
	<< Calculating gradient on displaced geometry  69 (of 252) >>
	<< Calculating gradient on displaced geometry  70 (of 252) >>
	<< Calculating gradient on displaced geometry  71 (of 252) >>
	<< Calculating gradient on displaced geometry  72 (of 252) >>
	<< Calculating gradient on displaced geometry  73 (of 252) >>
	<< Calculating gradient on displaced geometry  74 (of 252) >>
	<< Calculating gradient on displaced geometry  75 (of 252) >>
	<< Calculating gradient on displaced geometry  76 (of 252) >>
	<< Calculating gradient on displaced geometry  77 (of 252) >>
	<< Calculating gradient on displaced geometry  78 (of 252) >>
	<< Calculating gradient on displaced geometry  79 (of 252) >>
	<< Calculating gradient on displaced geometry  80 (of 252) >>
	<< Calculating gradient on displaced geometry  81 (of 252) >>
	<< Calculating gradient on displaced geometry  82 (of 252) >>
	<< Calculating gradient on displaced geometry  83 (of 252) >>
	<< Calculating gradient on displaced geometry  84 (of 252) >>
	<< Calculating gradient on displaced geometry  85 (of 252) >>
	<< Calculating gradient on displaced geometry  86 (of 252) >>
	<< Calculating gradient on displaced geometry  87 (of 252) >>
	<< Calculating gradient on displaced geometry  88 (of 252) >>
	<< Calculating gradient on displaced geometry  89 (of 252) >>
	<< Calculating gradient on displaced geometry  90 (of 252) >>
	<< Calculating gradient on displaced geometry  91 (of 252) >>
	<< Calculating gradient on displaced geometry  92 (of 252) >>
	<< Calculating gradient on displaced geometry  93 (of 252) >>
	<< Calculating gradient on displaced geometry  94 (of 252) >>
	<< Calculating gradient on displaced geometry  95 (of 252) >>
	<< Calculating gradient on displaced geometry  96 (of 252) >>
	<< Calculating gradient on displaced geometry  97 (of 252) >>
	<< Calculating gradient on displaced geometry  98 (of 252) >>
	<< Calculating gradient on displaced geometry  99 (of 252) >>
	<< Calculating gradient on displaced geometry 100 (of 252) >>
	<< Calculating gradient on displaced geometry 101 (of 252) >>
	<< Calculating gradient on displaced geometry 102 (of 252) >>
	<< Calculating gradient on displaced geometry 103 (of 252) >>
	<< Calculating gradient on displaced geometry 104 (of 252) >>
	<< Calculating gradient on displaced geometry 105 (of 252) >>
	<< Calculating gradient on displaced geometry 106 (of 252) >>
	<< Calculating gradient on displaced geometry 107 (of 252) >>
	<< Calculating gradient on displaced geometry 108 (of 252) >>
	<< Calculating gradient on displaced geometry 109 (of 252) >>
	<< Calculating gradient on displaced geometry 110 (of 252) >>
	<< Calculating gradient on displaced geometry 111 (of 252) >>
	<< Calculating gradient on displaced geometry 112 (of 252) >>
	<< Calculating gradient on displaced geometry 113 (of 252) >>
	<< Calculating gradient on displaced geometry 114 (of 252) >>
	<< Calculating gradient on displaced geometry 115 (of 252) >>
	<< Calculating gradient on displaced geometry 116 (of 252) >>
	<< Calculating gradient on displaced geometry 117 (of 252) >>
	<< Calculating gradient on displaced geometry 118 (of 252) >>
	<< Calculating gradient on displaced geometry 119 (of 252) >>
	<< Calculating gradient on displaced geometry 120 (of 252) >>
	<< Calculating gradient on displaced geometry 121 (of 252) >>
	<< Calculating gradient on displaced geometry 122 (of 252) >>
	<< Calculating gradient on displaced geometry 123 (of 252) >>
	<< Calculating gradient on displaced geometry 124 (of 252) >>
	<< Calculating gradient on displaced geometry 125 (of 252) >>
	<< Calculating gradient on displaced geometry 126 (of 252) >>
	<< Calculating gradient on displaced geometry 127 (of 252) >>
	<< Calculating gradient on displaced geometry 128 (of 252) >>
	<< Calculating gradient on displaced geometry 129 (of 252) >>
	<< Calculating gradient on displaced geometry 130 (of 252) >>
	<< Calculating gradient on displaced geometry 131 (of 252) >>
	<< Calculating gradient on displaced geometry 132 (of 252) >>
	<< Calculating gradient on displaced geometry 133 (of 252) >>
	<< Calculating gradient on displaced geometry 134 (of 252) >>
	<< Calculating gradient on displaced geometry 135 (of 252) >>
	<< Calculating gradient on displaced geometry 136 (of 252) >>
	<< Calculating gradient on displaced geometry 137 (of 252) >>
	<< Calculating gradient on displaced geometry 138 (of 252) >>
	<< Calculating gradient on displaced geometry 139 (of 252) >>
	<< Calculating gradient on displaced geometry 140 (of 252) >>
	<< Calculating gradient on displaced geometry 141 (of 252) >>
	<< Calculating gradient on displaced geometry 142 (of 252) >>
	<< Calculating gradient on displaced geometry 143 (of 252) >>
	<< Calculating gradient on displaced geometry 144 (of 252) >>
	<< Calculating gradient on displaced geometry 145 (of 252) >>
	<< Calculating gradient on displaced geometry 146 (of 252) >>
	<< Calculating gradient on displaced geometry 147 (of 252) >>
	<< Calculating gradient on displaced geometry 148 (of 252) >>
	<< Calculating gradient on displaced geometry 149 (of 252) >>
	<< Calculating gradient on displaced geometry 150 (of 252) >>
	<< Calculating gradient on displaced geometry 151 (of 252) >>
	<< Calculating gradient on displaced geometry 152 (of 252) >>
	<< Calculating gradient on displaced geometry 153 (of 252) >>
	<< Calculating gradient on displaced geometry 154 (of 252) >>
	<< Calculating gradient on displaced geometry 155 (of 252) >>
	<< Calculating gradient on displaced geometry 156 (of 252) >>
	<< Calculating gradient on displaced geometry 157 (of 252) >>
	<< Calculating gradient on displaced geometry 158 (of 252) >>
	<< Calculating gradient on displaced geometry 159 (of 252) >>
	<< Calculating gradient on displaced geometry 160 (of 252) >>
	<< Calculating gradient on displaced geometry 161 (of 252) >>
	<< Calculating gradient on displaced geometry 162 (of 252) >>
	<< Calculating gradient on displaced geometry 163 (of 252) >>
	<< Calculating gradient on displaced geometry 164 (of 252) >>
	<< Calculating gradient on displaced geometry 165 (of 252) >>
	<< Calculating gradient on displaced geometry 166 (of 252) >>
	<< Calculating gradient on displaced geometry 167 (of 252) >>
	<< Calculating gradient on displaced geometry 168 (of 252) >>
	<< Calculating gradient on displaced geometry 169 (of 252) >>
	<< Calculating gradient on displaced geometry 170 (of 252) >>
	<< Calculating gradient on displaced geometry 171 (of 252) >>
	<< Calculating gradient on displaced geometry 172 (of 252) >>
	<< Calculating gradient on displaced geometry 173 (of 252) >>
	<< Calculating gradient on displaced geometry 174 (of 252) >>
	<< Calculating gradient on displaced geometry 175 (of 252) >>
	<< Calculating gradient on displaced geometry 176 (of 252) >>
	<< Calculating gradient on displaced geometry 177 (of 252) >>
	<< Calculating gradient on displaced geometry 178 (of 252) >>
	<< Calculating gradient on displaced geometry 179 (of 252) >>
	<< Calculating gradient on displaced geometry 180 (of 252) >>
	<< Calculating gradient on displaced geometry 181 (of 252) >>
	<< Calculating gradient on displaced geometry 182 (of 252) >>
	<< Calculating gradient on displaced geometry 183 (of 252) >>
	<< Calculating gradient on displaced geometry 184 (of 252) >>
	<< Calculating gradient on displaced geometry 185 (of 252) >>
	<< Calculating gradient on displaced geometry 186 (of 252) >>
	<< Calculating gradient on displaced geometry 187 (of 252) >>
	<< Calculating gradient on displaced geometry 188 (of 252) >>
	<< Calculating gradient on displaced geometry 189 (of 252) >>
	<< Calculating gradient on displaced geometry 190 (of 252) >>
	<< Calculating gradient on displaced geometry 191 (of 252) >>
	<< Calculating gradient on displaced geometry 192 (of 252) >>
	<< Calculating gradient on displaced geometry 193 (of 252) >>
	<< Calculating gradient on displaced geometry 194 (of 252) >>
	<< Calculating gradient on displaced geometry 195 (of 252) >>
	<< Calculating gradient on displaced geometry 196 (of 252) >>
	<< Calculating gradient on displaced geometry 197 (of 252) >>
	<< Calculating gradient on displaced geometry 198 (of 252) >>
	<< Calculating gradient on displaced geometry 199 (of 252) >>
	<< Calculating gradient on displaced geometry 200 (of 252) >>
	<< Calculating gradient on displaced geometry 201 (of 252) >>
	<< Calculating gradient on displaced geometry 202 (of 252) >>
	<< Calculating gradient on displaced geometry 203 (of 252) >>
	<< Calculating gradient on displaced geometry 204 (of 252) >>
	<< Calculating gradient on displaced geometry 205 (of 252) >>
	<< Calculating gradient on displaced geometry 206 (of 252) >>
	<< Calculating gradient on displaced geometry 207 (of 252) >>
	<< Calculating gradient on displaced geometry 208 (of 252) >>
	<< Calculating gradient on displaced geometry 209 (of 252) >>
	<< Calculating gradient on displaced geometry 210 (of 252) >>
	<< Calculating gradient on displaced geometry 211 (of 252) >>
	<< Calculating gradient on displaced geometry 212 (of 252) >>
	<< Calculating gradient on displaced geometry 213 (of 252) >>
	<< Calculating gradient on displaced geometry 214 (of 252) >>
	<< Calculating gradient on displaced geometry 215 (of 252) >>
	<< Calculating gradient on displaced geometry 216 (of 252) >>
	<< Calculating gradient on displaced geometry 217 (of 252) >>
	<< Calculating gradient on displaced geometry 218 (of 252) >>
	<< Calculating gradient on displaced geometry 219 (of 252) >>
	<< Calculating gradient on displaced geometry 220 (of 252) >>
	<< Calculating gradient on displaced geometry 221 (of 252) >>
	<< Calculating gradient on displaced geometry 222 (of 252) >>
	<< Calculating gradient on displaced geometry 223 (of 252) >>
	<< Calculating gradient on displaced geometry 224 (of 252) >>
	<< Calculating gradient on displaced geometry 225 (of 252) >>
	<< Calculating gradient on displaced geometry 226 (of 252) >>
	<< Calculating gradient on displaced geometry 227 (of 252) >>
	<< Calculating gradient on displaced geometry 228 (of 252) >>
	<< Calculating gradient on displaced geometry 229 (of 252) >>
	<< Calculating gradient on displaced geometry 230 (of 252) >>
	<< Calculating gradient on displaced geometry 231 (of 252) >>
	<< Calculating gradient on displaced geometry 232 (of 252) >>
	<< Calculating gradient on displaced geometry 233 (of 252) >>
	<< Calculating gradient on displaced geometry 234 (of 252) >>
	<< Calculating gradient on displaced geometry 235 (of 252) >>
	<< Calculating gradient on displaced geometry 236 (of 252) >>
	<< Calculating gradient on displaced geometry 237 (of 252) >>
	<< Calculating gradient on displaced geometry 238 (of 252) >>
	<< Calculating gradient on displaced geometry 239 (of 252) >>
	<< Calculating gradient on displaced geometry 240 (of 252) >>
	<< Calculating gradient on displaced geometry 241 (of 252) >>
	<< Calculating gradient on displaced geometry 242 (of 252) >>
	<< Calculating gradient on displaced geometry 243 (of 252) >>
	<< Calculating gradient on displaced geometry 244 (of 252) >>
	<< Calculating gradient on displaced geometry 245 (of 252) >>
	<< Calculating gradient on displaced geometry 246 (of 252) >>
	<< Calculating gradient on displaced geometry 247 (of 252) >>
	<< Calculating gradient on displaced geometry 248 (of 252) >>
	<< Calculating gradient on displaced geometry 249 (of 252) >>
	<< Calculating gradient on displaced geometry 250 (of 252) >>
	<< Calculating gradient on displaced geometry 251 (of 252) >>
	<< Calculating gradient on displaced geometry 252 (of 252) >>

-----------------------
VIBRATIONAL FREQUENCIES
-----------------------

Scaling factor for frequencies =  1.000000000  (already applied!)

     0:       0.00 cm**-1
     1:       0.00 cm**-1
     2:       0.00 cm**-1
     3:       0.00 cm**-1
     4:       0.00 cm**-1
     5:       0.00 cm**-1
     6:      21.95 cm**-1
     7:      30.67 cm**-1
     8:      56.84 cm**-1
     9:      73.52 cm**-1
    10:      78.79 cm**-1
    11:      98.66 cm**-1
    12:     120.67 cm**-1
    13:     138.25 cm**-1
    14:     160.59 cm**-1
    15:     193.30 cm**-1
    16:     215.52 cm**-1
    17:     251.48 cm**-1
    18:     272.59 cm**-1
    19:     305.15 cm**-1
    20:     318.01 cm**-1
    21:     338.74 cm**-1
    22:     353.43 cm**-1
    23:     378.82 cm**-1
    24:     381.91 cm**-1
    25:     403.43 cm**-1
    26:     414.26 cm**-1
    27:     439.27 cm**-1
    28:     458.73 cm**-1
    29:     476.76 cm**-1
    30:     514.78 cm**-1
    31:     527.91 cm**-1
    32:     530.56 cm**-1
    33:     551.85 cm**-1
    34:     591.80 cm**-1
    35:     614.08 cm**-1
    36:     622.65 cm**-1
    37:     636.76 cm**-1
    38:     661.78 cm**-1
    39:     691.17 cm**-1
    40:     702.96 cm**-1
    41:     707.00 cm**-1
    42:     719.51 cm**-1
    43:     743.37 cm**-1
    44:     755.99 cm**-1
    45:     791.84 cm**-1
    46:     813.42 cm**-1
    47:     854.84 cm**-1
    48:     860.16 cm**-1
    49:     869.43 cm**-1
    50:     882.25 cm**-1
    51:     890.08 cm**-1
    52:     897.56 cm**-1
    53:     907.66 cm**-1
    54:     911.33 cm**-1
    55:     934.25 cm**-1
    56:     946.81 cm**-1
    57:     989.07 cm**-1
    58:     992.03 cm**-1
    59:    1020.97 cm**-1
    60:    1030.60 cm**-1
    61:    1041.33 cm**-1
    62:    1052.57 cm**-1
    63:    1059.54 cm**-1
    64:    1086.78 cm**-1
    65:    1095.10 cm**-1
    66:    1098.24 cm**-1
    67:    1112.26 cm**-1
    68:    1142.48 cm**-1
    69:    1158.13 cm**-1
    70:    1179.26 cm**-1
    71:    1202.13 cm**-1
    72:    1205.85 cm**-1
    73:    1211.29 cm**-1
    74:    1222.69 cm**-1
    75:    1227.64 cm**-1
    76:    1232.08 cm**-1
    77:    1272.52 cm**-1
    78:    1284.97 cm**-1
    79:    1296.00 cm**-1
    80:    1298.42 cm**-1
    81:    1314.33 cm**-1
    82:    1323.58 cm**-1
    83:    1339.93 cm**-1
    84:    1342.24 cm**-1
    85:    1354.30 cm**-1
    86:    1367.14 cm**-1
    87:    1371.90 cm**-1
    88:    1379.64 cm**-1
    89:    1382.90 cm**-1
    90:    1383.92 cm**-1
    91:    1400.72 cm**-1
    92:    1424.29 cm**-1
    93:    1443.93 cm**-1
    94:    1450.11 cm**-1
    95:    1461.16 cm**-1
    96:    1469.19 cm**-1
    97:    1475.49 cm**-1
    98:    1482.94 cm**-1
    99:    1483.85 cm**-1
   100:    1495.71 cm**-1
   101:    1512.31 cm**-1
   102:    1516.23 cm**-1
   103:    1535.11 cm**-1
   104:    1560.56 cm**-1
   105:    1585.21 cm**-1
   106:    1604.11 cm**-1
   107:    1648.38 cm**-1
   108:    2951.74 cm**-1
   109:    2956.08 cm**-1
   110:    3005.59 cm**-1
   111:    3005.72 cm**-1
   112:    3036.24 cm**-1
   113:    3036.85 cm**-1
   114:    3077.62 cm**-1
   115:    3087.09 cm**-1
   116:    3090.79 cm**-1
   117:    3095.58 cm**-1
   118:    3096.16 cm**-1
   119:    3099.52 cm**-1
   120:    3169.20 cm**-1
   121:    3181.29 cm**-1
   122:    3190.74 cm**-1
   123:    3194.27 cm**-1
   124:    3237.75 cm**-1
   125:    3257.63 cm**-1


------------
NORMAL MODES
------------

These modes are the Cartesian displacements weighted by the diagonal matrix
M(i,i)=1/sqrt(m[i]) where m[i] is the mass of the displaced atom
Thus, these vectors are normalized but *not* orthogonal

                  0          1          2          3          4          5    
      0       0.000000   0.000000   0.000000   0.000000   0.000000   0.000000
      1       0.000000   0.000000   0.000000   0.000000   0.000000   0.000000
      2       0.000000   0.000000   0.000000   0.000000   0.000000   0.000000
      3       0.000000   0.000000   0.000000   0.000000   0.000000   0.000000
      4       0.000000   0.000000   0.000000   0.000000   0.000000   0.000000
      5       0.000000   0.000000   0.000000   0.000000   0.000000   0.000000
      6       0.000000   0.000000   0.000000   0.000000   0.000000   0.000000
      7       0.000000   0.000000   0.000000   0.000000   0.000000   0.000000
      8       0.000000   0.000000   0.000000   0.000000   0.000000   0.000000
      9       0.000000   0.000000   0.000000   0.000000   0.000000   0.000000
     10       0.000000   0.000000   0.000000   0.000000   0.000000   0.000000
     11       0.000000   0.000000   0.000000   0.000000   0.000000   0.000000
     12       0.000000   0.000000   0.000000   0.000000   0.000000   0.000000
     13       0.000000   0.000000   0.000000   0.000000   0.000000   0.000000
     14       0.000000   0.000000   0.000000   0.000000   0.000000   0.000000
     15       0.000000   0.000000   0.000000   0.000000   0.000000   0.000000
     16       0.000000   0.000000   0.000000   0.000000   0.000000   0.000000
     17       0.000000   0.000000   0.000000   0.000000   0.000000   0.000000
     18       0.000000   0.000000   0.000000   0.000000   0.000000   0.000000
     19       0.000000   0.000000   0.000000   0.000000   0.000000   0.000000
     20       0.000000   0.000000   0.000000   0.000000   0.000000   0.000000
     21       0.000000   0.000000   0.000000   0.000000   0.000000   0.000000
     22       0.000000   0.000000   0.000000   0.000000   0.000000   0.000000
     23       0.000000   0.000000   0.000000   0.000000   0.000000   0.000000
     24       0.000000   0.000000   0.000000   0.000000   0.000000   0.000000
     25       0.000000   0.000000   0.000000   0.000000   0.000000   0.000000
     26       0.000000   0.000000   0.000000   0.000000   0.000000   0.000000
     27       0.000000   0.000000   0.000000   0.000000   0.000000   0.000000
     28       0.000000   0.000000   0.000000   0.000000   0.000000   0.000000
     29       0.000000   0.000000   0.000000   0.000000   0.000000   0.000000
     30       0.000000   0.000000   0.000000   0.000000   0.000000   0.000000
     31       0.000000   0.000000   0.000000   0.000000   0.000000   0.000000
     32       0.000000   0.000000   0.000000   0.000000   0.000000   0.000000
     33       0.000000   0.000000   0.000000   0.000000   0.000000   0.000000
     34       0.000000   0.000000   0.000000   0.000000   0.000000   0.000000
     35       0.000000   0.000000   0.000000   0.000000   0.000000   0.000000
     36       0.000000   0.000000   0.000000   0.000000   0.000000   0.000000
     37       0.000000   0.000000   0.000000   0.000000   0.000000   0.000000
     38       0.000000   0.000000   0.000000   0.000000   0.000000   0.000000
     39       0.000000   0.000000   0.000000   0.000000   0.000000   0.000000
     40       0.000000   0.000000   0.000000   0.000000   0.000000   0.000000
     41       0.000000   0.000000   0.000000   0.000000   0.000000   0.000000
     42       0.000000   0.000000   0.000000   0.000000   0.000000   0.000000
     43       0.000000   0.000000   0.000000   0.000000   0.000000   0.000000
     44       0.000000   0.000000   0.000000   0.000000   0.000000   0.000000
     45       0.000000   0.000000   0.000000   0.000000   0.000000   0.000000
     46       0.000000   0.000000   0.000000   0.000000   0.000000   0.000000
     47       0.000000   0.000000   0.000000   0.000000   0.000000   0.000000
     48       0.000000   0.000000   0.000000   0.000000   0.000000   0.000000
     49       0.000000   0.000000   0.000000   0.000000   0.000000   0.000000
     50       0.000000   0.000000   0.000000   0.000000   0.000000   0.000000
     51       0.000000   0.000000   0.000000   0.000000   0.000000   0.000000
     52       0.000000   0.000000   0.000000   0.000000   0.000000   0.000000
     53       0.000000   0.000000   0.000000   0.000000   0.000000   0.000000
     54       0.000000   0.000000   0.000000   0.000000   0.000000   0.000000
     55       0.000000   0.000000   0.000000   0.000000   0.000000   0.000000
     56       0.000000   0.000000   0.000000   0.000000   0.000000   0.000000
     57       0.000000   0.000000   0.000000   0.000000   0.000000   0.000000
     58       0.000000   0.000000   0.000000   0.000000   0.000000   0.000000
     59       0.000000   0.000000   0.000000   0.000000   0.000000   0.000000
     60       0.000000   0.000000   0.000000   0.000000   0.000000   0.000000
     61       0.000000   0.000000   0.000000   0.000000   0.000000   0.000000
     62       0.000000   0.000000   0.000000   0.000000   0.000000   0.000000
     63       0.000000   0.000000   0.000000   0.000000   0.000000   0.000000
     64       0.000000   0.000000   0.000000   0.000000   0.000000   0.000000
     65       0.000000   0.000000   0.000000   0.000000   0.000000   0.000000
     66       0.000000   0.000000   0.000000   0.000000   0.000000   0.000000
     67       0.000000   0.000000   0.000000   0.000000   0.000000   0.000000
     68       0.000000   0.000000   0.000000   0.000000   0.000000   0.000000
     69       0.000000   0.000000   0.000000   0.000000   0.000000   0.000000
     70       0.000000   0.000000   0.000000   0.000000   0.000000   0.000000
     71       0.000000   0.000000   0.000000   0.000000   0.000000   0.000000
     72       0.000000   0.000000   0.000000   0.000000   0.000000   0.000000
     73       0.000000   0.000000   0.000000   0.000000   0.000000   0.000000
     74       0.000000   0.000000   0.000000   0.000000   0.000000   0.000000
     75       0.000000   0.000000   0.000000   0.000000   0.000000   0.000000
     76       0.000000   0.000000   0.000000   0.000000   0.000000   0.000000
     77       0.000000   0.000000   0.000000   0.000000   0.000000   0.000000
     78       0.000000   0.000000   0.000000   0.000000   0.000000   0.000000
     79       0.000000   0.000000   0.000000   0.000000   0.000000   0.000000
     80       0.000000   0.000000   0.000000   0.000000   0.000000   0.000000
     81       0.000000   0.000000   0.000000   0.000000   0.000000   0.000000
     82       0.000000   0.000000   0.000000   0.000000   0.000000   0.000000
     83       0.000000   0.000000   0.000000   0.000000   0.000000   0.000000
     84       0.000000   0.000000   0.000000   0.000000   0.000000   0.000000
     85       0.000000   0.000000   0.000000   0.000000   0.000000   0.000000
     86       0.000000   0.000000   0.000000   0.000000   0.000000   0.000000
     87       0.000000   0.000000   0.000000   0.000000   0.000000   0.000000
     88       0.000000   0.000000   0.000000   0.000000   0.000000   0.000000
     89       0.000000   0.000000   0.000000   0.000000   0.000000   0.000000
     90       0.000000   0.000000   0.000000   0.000000   0.000000   0.000000
     91       0.000000   0.000000   0.000000   0.000000   0.000000   0.000000
     92       0.000000   0.000000   0.000000   0.000000   0.000000   0.000000
     93       0.000000   0.000000   0.000000   0.000000   0.000000   0.000000
     94       0.000000   0.000000   0.000000   0.000000   0.000000   0.000000
     95       0.000000   0.000000   0.000000   0.000000   0.000000   0.000000
     96       0.000000   0.000000   0.000000   0.000000   0.000000   0.000000
     97       0.000000   0.000000   0.000000   0.000000   0.000000   0.000000
     98       0.000000   0.000000   0.000000   0.000000   0.000000   0.000000
     99       0.000000   0.000000   0.000000   0.000000   0.000000   0.000000
    100       0.000000   0.000000   0.000000   0.000000   0.000000   0.000000
    101       0.000000   0.000000   0.000000   0.000000   0.000000   0.000000
    102       0.000000   0.000000   0.000000   0.000000   0.000000   0.000000
    103       0.000000   0.000000   0.000000   0.000000   0.000000   0.000000
    104       0.000000   0.000000   0.000000   0.000000   0.000000   0.000000
    105       0.000000   0.000000   0.000000   0.000000   0.000000   0.000000
    106       0.000000   0.000000   0.000000   0.000000   0.000000   0.000000
    107       0.000000   0.000000   0.000000   0.000000   0.000000   0.000000
    108       0.000000   0.000000   0.000000   0.000000   0.000000   0.000000
    109       0.000000   0.000000   0.000000   0.000000   0.000000   0.000000
    110       0.000000   0.000000   0.000000   0.000000   0.000000   0.000000
    111       0.000000   0.000000   0.000000   0.000000   0.000000   0.000000
    112       0.000000   0.000000   0.000000   0.000000   0.000000   0.000000
    113       0.000000   0.000000   0.000000   0.000000   0.000000   0.000000
    114       0.000000   0.000000   0.000000   0.000000   0.000000   0.000000
    115       0.000000   0.000000   0.000000   0.000000   0.000000   0.000000
    116       0.000000   0.000000   0.000000   0.000000   0.000000   0.000000
    117       0.000000   0.000000   0.000000   0.000000   0.000000   0.000000
    118       0.000000   0.000000   0.000000   0.000000   0.000000   0.000000
    119       0.000000   0.000000   0.000000   0.000000   0.000000   0.000000
    120       0.000000   0.000000   0.000000   0.000000   0.000000   0.000000
    121       0.000000   0.000000   0.000000   0.000000   0.000000   0.000000
    122       0.000000   0.000000   0.000000   0.000000   0.000000   0.000000
    123       0.000000   0.000000   0.000000   0.000000   0.000000   0.000000
    124       0.000000   0.000000   0.000000   0.000000   0.000000   0.000000
    125       0.000000   0.000000   0.000000   0.000000   0.000000   0.000000
                  6          7          8          9         10         11    
      0       0.005372   0.010838  -0.013059  -0.000461   0.000590   0.014131
      1       0.012069   0.023560  -0.068880  -0.042340   0.086203  -0.095371
      2      -0.020885  -0.080354   0.139283   0.130614  -0.167590  -0.067270
      3      -0.004797   0.034134  -0.060750  -0.024028   0.045478   0.088534
      4      -0.048468   0.046313  -0.058012   0.072427  -0.015141  -0.082412
      5       0.042677  -0.103496   0.125727   0.008035  -0.057001  -0.079230
      6      -0.011429   0.005582   0.017851   0.008854  -0.031530   0.097952
      7      -0.028946   0.023731  -0.026029   0.036430  -0.009879  -0.055384
      8       0.103812  -0.092447   0.030037  -0.147246   0.126125  -0.040899
      9      -0.002821   0.070348  -0.157002  -0.066858   0.139742   0.118349
     10      -0.106895   0.067895  -0.036290   0.191332  -0.130590  -0.065767
     11       0.017772  -0.082541   0.103747   0.045326  -0.077130  -0.062489
     12      -0.007377   0.033797  -0.055143  -0.021704   0.037972   0.105045
     13      -0.049998   0.060121  -0.096732   0.069978   0.014807  -0.110093
     14       0.067075  -0.146244   0.206288  -0.001184  -0.095305  -0.123724
     15      -0.006787  -0.003259   0.019912   0.001868  -0.008193   0.061440
     16      -0.018541  -0.002125   0.016526   0.013242  -0.020431  -0.010427
     17       0.067339  -0.005224  -0.049201  -0.064059   0.039837   0.018318
     18      -0.019238   0.037620  -0.006527   0.029117  -0.070930   0.161750
     19      -0.075603   0.051114  -0.004820   0.153082  -0.142641  -0.045943
     20       0.148935  -0.114783   0.004622  -0.260681   0.252392  -0.040273
     21      -0.012179  -0.044934   0.106273   0.021744  -0.072283   0.072081
     22       0.026159  -0.005683  -0.063925  -0.107223   0.163544  -0.074660
     23       0.134982  -0.132644   0.049971  -0.223046   0.206102  -0.064209
     24       0.004220  -0.000863   0.006794   0.005753   0.002639   0.019288
     25       0.003340  -0.001724   0.015161   0.000803  -0.001727  -0.004826
     26      -0.002676  -0.007074  -0.034885  -0.029089  -0.015032   0.006576
     27       0.009771   0.008054  -0.011265  -0.001471   0.006743  -0.013146
     28       0.019767   0.015820  -0.017074  -0.019131   0.009624  -0.049689
     29      -0.058180  -0.050194   0.026153   0.071561  -0.020618  -0.008854
     30       0.009782  -0.003662   0.086293   0.090747  -0.165397  -0.006674
     31       0.066924   0.002292  -0.094604  -0.162495   0.212289  -0.122974
     32       0.003654  -0.095263   0.171854   0.121284  -0.186716  -0.087212
     33       0.008336   0.017034  -0.072833  -0.058988   0.107772  -0.001370
     34      -0.001520   0.031107  -0.090914  -0.036675   0.110071  -0.109629
     35      -0.063497  -0.072903   0.202369   0.266268  -0.329687  -0.074818
     36       0.020696   0.007141  -0.011864   0.034957   0.012902  -0.070397
     37       0.064434   0.018591   0.000654  -0.051360  -0.065880  -0.071403
     38      -0.157584  -0.054621  -0.011111   0.135079   0.150753   0.042092
     39       0.036274   0.026201  -0.036215  -0.037638  -0.041202  -0.121487
     40       0.017576  -0.001047   0.013090  -0.001533   0.015270   0.007561
     41      -0.193341  -0.021985  -0.075627  -0.036873   0.104416   0.004978
     42       0.005155  -0.024165   0.026442   0.210285   0.124242  -0.016115
     43       0.149109   0.024683   0.030087  -0.109090  -0.216498  -0.119350
     44      -0.151806  -0.056968  -0.004794   0.146774   0.148582   0.043302
     45       0.032665   0.024216  -0.034691  -0.038800  -0.037838  -0.116451
     46       0.047786   0.027194  -0.024655  -0.062890  -0.045036  -0.105376
     47      -0.212695  -0.082304   0.002745   0.295558   0.305870   0.099358
     48       0.016447   0.001262  -0.005115   0.051298   0.037886  -0.050455
     49       0.035504  -0.012398   0.045760   0.041165   0.018232   0.072299
     50      -0.107298   0.020077  -0.091529  -0.183154  -0.086461  -0.046842
     51       0.044346   0.025474  -0.037259  -0.007499  -0.030572  -0.158764
     52       0.055141   0.002681   0.026834   0.002665  -0.028953   0.004042
     53      -0.270733  -0.029908  -0.103710  -0.047254   0.194955   0.013772
     54       0.053331   0.059485  -0.076064  -0.189320  -0.151171  -0.173616
     55      -0.070070  -0.011401  -0.016461  -0.010085   0.120416   0.021225
     56      -0.205870  -0.022140  -0.081914  -0.044845   0.114681   0.004682
     57       0.007229  -0.005849   0.010148   0.013625   0.009173   0.002769
     58       0.007087  -0.016775   0.038269   0.010306   0.010301   0.047142
     59      -0.016511   0.034888  -0.073859  -0.076803  -0.058609   0.009135
     60      -0.008222  -0.026595   0.023480   0.241982   0.211704   0.019456
     61       0.112060   0.000788   0.065558   0.109413   0.010178   0.109274
     62      -0.107435   0.021387  -0.094106  -0.196722  -0.096965  -0.052325
     63       0.030487   0.016711  -0.023767  -0.017117  -0.025529  -0.093171
     64      -0.001970  -0.030879   0.060077   0.034306   0.037872   0.108797
     65      -0.114781   0.039240  -0.124621  -0.367369  -0.227205  -0.118268
     66      -0.012188  -0.012987   0.035342  -0.003728  -0.015361   0.078928
     67      -0.029201  -0.024914   0.048357  -0.001641  -0.027326   0.019066
     68       0.098992   0.065061  -0.114796  -0.028183   0.040505   0.066893
     69      -0.002635  -0.016422   0.019279   0.001036   0.003607   0.029506
     70      -0.011712  -0.033462   0.052479  -0.008423   0.004263   0.072024
     71       0.046503   0.087664  -0.086314  -0.024297  -0.056481   0.052569
     72      -0.010687  -0.019269   0.033786  -0.009630  -0.005590   0.048683
     73      -0.022936  -0.042204   0.064755  -0.023041  -0.010625   0.060982
     74       0.080834   0.118360  -0.127212   0.026287  -0.008554   0.089270
     75      -0.004855  -0.022991   0.010516  -0.003062   0.006239   0.032078
     76      -0.017913  -0.042029   0.035952  -0.002302   0.017310   0.088353
     77       0.068083   0.115461  -0.043307  -0.026156  -0.095185   0.048943
     78      -0.012491  -0.019270  -0.004346  -0.010200  -0.010766   0.051630
     79      -0.040181  -0.021048  -0.009973  -0.010405  -0.010589   0.094473
     80       0.125131   0.070399   0.127553   0.006829   0.005628   0.018279
     81      -0.013182  -0.024228   0.036601  -0.017358  -0.009311   0.044860
     82      -0.024503  -0.054356   0.085292  -0.044311  -0.010412   0.067169
     83       0.080321   0.172541  -0.167478   0.102026   0.000519   0.112658
     84      -0.015790  -0.011426   0.029258  -0.017886  -0.008452   0.047806
     85      -0.025245  -0.027903   0.037158  -0.028208  -0.011605   0.092258
     86       0.082531   0.092869  -0.039784   0.068791   0.010065   0.025975
     87      -0.015461  -0.019411  -0.048755  -0.002995  -0.018169   0.055292
     88      -0.068659  -0.001404  -0.084994  -0.001246  -0.029597   0.096406
     89       0.192588   0.036096   0.414953  -0.024781   0.072888  -0.001415
     90      -0.011069  -0.001744   0.017451  -0.012644  -0.008493   0.017232
     91      -0.008067  -0.002173   0.016393  -0.018892  -0.010297   0.055455
     92       0.023547   0.023350  -0.022217   0.058377   0.020041  -0.037283
     93      -0.034023   0.082380   0.068663  -0.013565  -0.001518   0.042900
     94      -0.091394   0.099268   0.054214  -0.019568   0.004803  -0.047446
     95       0.102148  -0.170599  -0.123675   0.059702   0.003783  -0.046063
     96       0.018219  -0.070036  -0.038351  -0.004082  -0.004051  -0.085781
     97       0.104872  -0.073497  -0.058216   0.005678  -0.012625   0.071749
     98      -0.139168   0.124025   0.073193   0.025853   0.021846  -0.065435
     99       0.033122  -0.061501  -0.065319   0.010682   0.007772  -0.172295
    100       0.149439  -0.054901  -0.103616   0.036161   0.008138  -0.044132
    101      -0.235512   0.048724   0.099168  -0.020381  -0.000417  -0.051947
    102       0.016323   0.018945  -0.024080   0.014837   0.016103  -0.157104
    103       0.071158   0.046037  -0.068100   0.040288   0.028385  -0.179306
    104      -0.169889  -0.132975   0.015023  -0.030091  -0.023944  -0.008716
    105      -0.018275   0.089821   0.042367   0.002109   0.010026  -0.046681
    106      -0.053611   0.125410   0.016054   0.009265   0.025615  -0.177478
    107       0.005539  -0.249693  -0.108144   0.013892  -0.019583  -0.019145
    108       0.026688  -0.131149  -0.059907  -0.009608  -0.009331  -0.100271
    109       0.177874  -0.160379  -0.098420   0.007747  -0.029525   0.187246
    110      -0.190645   0.261365   0.129720   0.032810   0.038947  -0.100109
    111      -0.035845   0.153956   0.078063   0.004177   0.015190  -0.029907
    112      -0.120959   0.209168   0.053536   0.008725   0.040648  -0.278846
    113       0.065609  -0.399633  -0.187484   0.010664  -0.035391  -0.004612
    114       0.029046   0.024787  -0.046427   0.028656   0.026623  -0.233870
    115       0.105112   0.064651  -0.103149   0.067059   0.046519  -0.287079
    116      -0.251772  -0.193079   0.039790  -0.071513  -0.045792   0.028435
    117      -0.064159   0.146116   0.127120  -0.024109  -0.004394   0.127058
    118      -0.190410   0.165090   0.120891  -0.042221   0.003898  -0.042724
    119       0.239687  -0.266570  -0.221904   0.092346   0.004288  -0.054390
    120      -0.017282  -0.014882   0.048107  -0.005586  -0.026073   0.120023
    121      -0.041998  -0.026271   0.053454   0.003591  -0.043905   0.012024
    122       0.140105   0.070495  -0.135088  -0.042523   0.095322   0.079906
    123      -0.005833  -0.032222   0.033003  -0.017832  -0.009854   0.041119
    124      -0.024080  -0.065292   0.113730  -0.057834  -0.014451   0.052188
    125       0.075249   0.219005  -0.269362   0.154435   0.018620   0.176162
                 12         13         14         15         16         17    
      0      -0.005203  -0.011314  -0.023985   0.034031  -0.087259  -0.069770
      1       0.049872  -0.027345  -0.003406   0.050853   0.074166   0.092238
      2      -0.029185  -0.001371  -0.058137  -0.018599  -0.029627  -0.027102
      3       0.050202   0.115222   0.046580   0.029647  -0.062190  -0.155907
      4       0.086550   0.097953  -0.036037   0.012422   0.043416   0.037886
      5      -0.067705  -0.134357  -0.022286   0.017632   0.008440   0.032140
      6      -0.037404   0.007734   0.026345  -0.023995  -0.062606  -0.095177
      7       0.028895   0.023718  -0.002695  -0.020429   0.058334   0.026886
      8      -0.006782  -0.080196   0.085788   0.066155   0.057319  -0.069115
      9       0.165458   0.296716   0.111491   0.078185  -0.048480  -0.282937
     10       0.110726   0.202029  -0.076279  -0.033480   0.005934   0.007699
     11      -0.019724  -0.029587  -0.017747   0.013645  -0.002438  -0.021917
     12       0.045711   0.123021   0.055409   0.013694  -0.059213  -0.161631
     13       0.133211   0.145848  -0.042793   0.056385   0.035438   0.012019
     14      -0.183073  -0.352224  -0.069766   0.000924   0.009234   0.158562
     15      -0.029639  -0.020174   0.022576   0.017469  -0.024318  -0.064790
     16      -0.031011  -0.027171   0.037171  -0.054884   0.047614  -0.032104
     17       0.068564   0.123336  -0.010257  -0.059653  -0.072855   0.011198
     18      -0.028173   0.095147   0.006785  -0.116666  -0.143167  -0.101687
     19       0.025925   0.082702  -0.102772  -0.102202  -0.031771   0.118393
     20      -0.002346  -0.124865   0.183220   0.133675   0.135005  -0.162190
     21      -0.126645  -0.142222   0.036174  -0.010524  -0.024504  -0.086131
     22       0.050311  -0.028304   0.120109   0.096295   0.173213  -0.089535
     23      -0.036131  -0.180775   0.160181   0.139557   0.141310  -0.131335
     24      -0.018385  -0.028799  -0.006752   0.019922  -0.047515  -0.059078
     25      -0.036179  -0.040169   0.015916  -0.081872   0.020098  -0.031535
     26       0.084525   0.162390   0.059305   0.029268   0.005352  -0.002445
     27      -0.003038  -0.033789  -0.034944   0.050772  -0.072715  -0.031844
     28      -0.019546  -0.057457  -0.036795  -0.065940  -0.019849   0.030998
     29       0.097519   0.180136   0.096437   0.114010   0.124550  -0.091435
     30      -0.107843  -0.108034  -0.158556  -0.114332  -0.241438  -0.066525
     31       0.031669  -0.150023   0.041168   0.126410   0.147697   0.180818
     32      -0.081435  -0.095573  -0.099869  -0.053357  -0.068802   0.011722
     33       0.056004   0.017643   0.043560   0.143878   0.019579  -0.031067
     34       0.087223   0.006738   0.011968   0.098216   0.117374   0.108846
     35      -0.055797   0.034330  -0.155961  -0.119394  -0.134100  -0.062811
     36       0.055332  -0.037289  -0.050778   0.136457  -0.076209   0.019708
     37      -0.006346   0.032563  -0.012763  -0.024909   0.029716  -0.018137
     38       0.057672  -0.027022   0.034319   0.018345   0.011054   0.014302
     39       0.020842  -0.017999  -0.092022   0.153837  -0.072405   0.013256
     40      -0.032135  -0.036997  -0.003089  -0.103863  -0.014638  -0.022896
     41      -0.130449  -0.100162  -0.109839  -0.078889  -0.053692  -0.004949
     42       0.196710  -0.064141   0.039252   0.184965  -0.079887   0.084909
     43       0.032480   0.217040   0.047183   0.065598   0.135885  -0.109994
     44       0.072819  -0.016165   0.045760   0.028190   0.017581   0.013727
     45       0.012362  -0.021675  -0.094699   0.143808  -0.073659   0.008702
     46      -0.019611  -0.017028  -0.059860  -0.018011  -0.000980   0.025847
     47       0.144037  -0.138998   0.069140   0.014579  -0.041538   0.112636
     48       0.050398  -0.054460  -0.046179   0.077170  -0.091116   0.004527
     49       0.009844  -0.000759   0.080234  -0.118172   0.000703  -0.042526
     50      -0.128982   0.059678  -0.054500   0.038139   0.032142  -0.032953
     51       0.065175  -0.012581  -0.097887   0.191920  -0.057318   0.037801
     52       0.020412   0.030811   0.054237  -0.044447   0.026863  -0.029105
     53      -0.240194  -0.239208  -0.227300  -0.202907  -0.140211   0.006651
     54      -0.076055   0.017893  -0.151154   0.167565  -0.065912  -0.010975
     55      -0.156590  -0.197388  -0.134308  -0.250787  -0.115480  -0.011420
     56      -0.152951  -0.121699  -0.131138  -0.099811  -0.067854  -0.004175
     57      -0.014424  -0.018137  -0.013293   0.016871  -0.028747  -0.056227
     58      -0.044037  -0.014438   0.035808  -0.090376   0.013861  -0.060560
     59       0.060813   0.092760   0.065340   0.009488  -0.030394   0.057353
     60       0.165300  -0.179622  -0.021048  -0.022123  -0.215443   0.081503
     61       0.164783   0.048383   0.201397  -0.115379  -0.031671   0.019805
     62      -0.140160   0.066491  -0.060031   0.044182   0.041278  -0.039053
     63       0.022065  -0.019298  -0.066836   0.129014  -0.061553  -0.003664
     64      -0.062716  -0.012761   0.071279  -0.175387   0.034763  -0.100205
     65      -0.283155   0.140348  -0.122418   0.114187   0.145160  -0.115937
     66      -0.032756  -0.014961   0.043580   0.034030  -0.005722  -0.044406
     67      -0.036727  -0.016182   0.097411  -0.019866   0.059964  -0.046504
     68       0.044567   0.110072  -0.152760  -0.195477  -0.140824   0.082910
     69      -0.032977   0.009457  -0.000017   0.010432  -0.007480  -0.041441
     70      -0.068213   0.029221   0.034985  -0.053040   0.014285  -0.047120
     71       0.104765  -0.037250   0.081064  -0.065415  -0.067188   0.070988
     72      -0.023168  -0.003899   0.022197   0.025670   0.001678  -0.008294
     73      -0.046268   0.013597   0.085659  -0.029778  -0.002484  -0.024140
     74       0.040436   0.017394  -0.080138  -0.118136  -0.022538   0.021573
     75      -0.046631   0.049602   0.007585  -0.037304   0.000104  -0.036876
     76      -0.071593   0.091828  -0.029043   0.004330  -0.009486   0.009321
     77       0.144234  -0.264129   0.187142  -0.024419  -0.041316  -0.020143
     78      -0.023289   0.013150   0.025739  -0.028299   0.015074   0.020861
     79      -0.007366   0.008076  -0.025690   0.073150  -0.022237   0.074999
     80       0.004634  -0.038044   0.017045   0.018304   0.010258   0.012167
     81       0.009251   0.003325   0.002272   0.028753   0.004518   0.087485
     82       0.007261   0.026533   0.059592  -0.006465  -0.079452   0.100516
     83      -0.095172  -0.061552  -0.121664   0.038683   0.217945  -0.148436
     84       0.010278   0.001020  -0.003206  -0.012497   0.038743   0.084584
     85       0.034458  -0.004947  -0.030075   0.061375  -0.049756   0.064160
     86      -0.123490  -0.005468   0.017861   0.082103   0.081670   0.018938
     87      -0.042622   0.010899   0.057808  -0.049248   0.005034  -0.027781
     88       0.008572  -0.036885  -0.017415   0.121804  -0.007146   0.156351
     89       0.031161   0.070759  -0.118252  -0.003220   0.008403  -0.007073
     90       0.031443  -0.010599  -0.026748  -0.030971   0.099284   0.096746
     91       0.069957  -0.035527  -0.083646   0.076852   0.001550   0.009147
     92      -0.146267   0.044172   0.076357   0.086341  -0.012978   0.102608
     93       0.006401  -0.007386  -0.026176  -0.005988   0.137995   0.149943
     94       0.084585  -0.038133  -0.081993   0.049590  -0.005732  -0.091191
     95      -0.108493   0.041055   0.074281   0.044666  -0.059945   0.079343
     96       0.062711  -0.011367  -0.026545  -0.115813   0.121322   0.041599
     97       0.047059  -0.037409  -0.102029   0.100972   0.039826   0.006377
     98      -0.110956   0.043569   0.099093   0.059231  -0.070708   0.092052
     99       0.037371   0.006808   0.017376  -0.159097   0.087782   0.006688
    100      -0.018601  -0.003498  -0.028669   0.069451  -0.022474  -0.022898
    101       0.038705  -0.007140   0.005613  -0.007912  -0.023631  -0.014817
    102      -0.013404   0.024070   0.055854  -0.129629   0.069037   0.066170
    103      -0.047524   0.023465   0.050810   0.018286  -0.112722  -0.080472
    104       0.140102  -0.051169  -0.102963  -0.034017   0.058676  -0.091332
    105      -0.020868   0.012126   0.022155  -0.049665   0.106801   0.124363
    106       0.021911  -0.003704   0.001868   0.002309  -0.070167  -0.134819
    107       0.044214  -0.013348  -0.031847  -0.014149  -0.007074  -0.020597
    108       0.102953  -0.022733  -0.050971  -0.138415   0.134618   0.012535
    109       0.064192  -0.062110  -0.174689   0.168186   0.110444   0.034588
    110      -0.182075   0.074107   0.175246   0.065682  -0.134043   0.126997
    111      -0.050531   0.019365   0.035326  -0.014770   0.107309   0.157860
    112       0.021409   0.007046   0.035876  -0.048859  -0.085885  -0.188679
    113       0.097025  -0.030664  -0.069950  -0.054000  -0.000178  -0.055348
    114      -0.044399   0.044999   0.107358  -0.159265   0.019480   0.051531
    115      -0.117366   0.062379   0.141885  -0.010970  -0.195567  -0.078747
    116       0.285407  -0.108724  -0.224187  -0.078389   0.148677  -0.198017
    117      -0.002979  -0.013452  -0.044983   0.047714   0.181900   0.229990
    118       0.129461  -0.054705  -0.114455   0.052516   0.019383  -0.112774
    119      -0.171076   0.064163   0.120796   0.039696  -0.094402   0.114263
    120      -0.037660  -0.007949   0.069927   0.046593  -0.022249  -0.041402
    121      -0.019465  -0.009253   0.128015  -0.000835   0.072228  -0.048335
    122      -0.007730   0.086385  -0.254770  -0.257192  -0.176891   0.085524
    123       0.041823  -0.009285  -0.036202   0.074376  -0.005140   0.136821
    124       0.026394   0.033109   0.092672  -0.033235  -0.117994   0.137676
    125      -0.179057  -0.083714  -0.236729   0.140449   0.354704  -0.297835
                 18         19         20         21         22         23    
      0      -0.015366  -0.002439  -0.002105   0.053390   0.026230  -0.016129
      1       0.064812   0.018086   0.013236  -0.078551   0.036054  -0.001761
      2      -0.085853   0.021915  -0.024895   0.043070  -0.051941   0.017326
      3      -0.114372  -0.001315   0.001967   0.087716   0.065447  -0.003586
      4      -0.079521   0.053686  -0.040794  -0.009967  -0.098821   0.027992
      5       0.060264  -0.006002   0.022067  -0.033181   0.068114   0.000848
      6       0.037668  -0.033409   0.036865   0.034699   0.155166   0.026759
      7      -0.004343   0.030701  -0.025792   0.000787  -0.055788   0.081211
      8      -0.076838   0.021475  -0.022196   0.069670  -0.069841   0.040300
      9      -0.363102   0.044990  -0.050525   0.191538  -0.062478  -0.020698
     10      -0.175460   0.070211  -0.068515   0.027579  -0.150243   0.028630
     11      -0.062244   0.015737  -0.007076   0.016374   0.002842  -0.003879
     12      -0.114962  -0.003242   0.001360   0.093146   0.072595   0.010779
     13      -0.160946   0.073447  -0.056909   0.009296  -0.153889  -0.011086
     14       0.324724  -0.053794   0.078118  -0.136992   0.186383   0.013904
     15       0.018604   0.003661   0.015441   0.017930   0.056957   0.075681
     16       0.029932  -0.002856  -0.002617   0.037717   0.033454   0.063210
     17      -0.054756  -0.040313  -0.010752  -0.003560   0.030084  -0.198262
     18       0.064400  -0.093663   0.054784   0.024834   0.272248  -0.132237
     19       0.092635  -0.020604   0.017115  -0.115168   0.138139  -0.106880
     20      -0.170177   0.063163  -0.062536   0.184300  -0.246011   0.203025
     21       0.141982  -0.035909   0.066721   0.021608   0.209593   0.134014
     22      -0.154167   0.103900  -0.085995   0.145869  -0.319939   0.306524
     23      -0.112841   0.062380  -0.042273   0.146971  -0.195132   0.221654
     24       0.006317   0.023196  -0.013478   0.004921   0.012199   0.050097
     25      -0.005705   0.017751  -0.018328   0.034959   0.058689   0.038797
     26       0.032466  -0.132309   0.065687   0.012381  -0.017746  -0.138796
     27       0.007318   0.006644  -0.003777   0.022203   0.002068  -0.003127
     28       0.000404  -0.012569  -0.015314   0.078124   0.014071  -0.069350
     29      -0.035344   0.003233   0.067333  -0.165189   0.129300   0.103981
     30      -0.116661   0.004708  -0.096669   0.307409  -0.181629  -0.097480
     31       0.256336  -0.007678   0.087954  -0.255847   0.217739   0.000024
     32      -0.050520   0.015371  -0.036881   0.084543  -0.068985  -0.019781
     33       0.081613   0.001126   0.055014  -0.135892   0.126681   0.043095
     34       0.079582   0.035161   0.020504  -0.148822   0.024523   0.038876
     35      -0.248015   0.056523  -0.122822   0.246113  -0.297287   0.003119
     36       0.047676   0.037037  -0.003424   0.061003   0.021956  -0.042723
     37      -0.047924  -0.053749   0.045075  -0.026274   0.068424  -0.015310
     38       0.064772   0.077147  -0.045879   0.060630   0.055467  -0.038490
     39       0.008724  -0.015817   0.041225   0.014216   0.022795  -0.016517
     40      -0.046539  -0.055483   0.029235   0.006108   0.053959  -0.042117
     41      -0.080936  -0.091754   0.059418  -0.063731  -0.017666   0.025897
     42       0.219603   0.232011  -0.149796   0.298850   0.066291  -0.204201
     43      -0.127894  -0.115511   0.142339  -0.229120   0.136549   0.127001
     44       0.074154   0.090758  -0.052805   0.068360   0.062521  -0.042948
     45      -0.010697  -0.042674   0.059671  -0.028393   0.003158   0.015438
     46      -0.034623  -0.063757   0.043530   0.006878   0.038659  -0.038740
     47       0.230042   0.254539  -0.201168   0.329835   0.053014  -0.219301
     48      -0.001978  -0.079263   0.058502  -0.006867  -0.004779   0.015891
     49       0.014889  -0.031659   0.001062   0.042625   0.039894  -0.015660
     50       0.048727   0.079290  -0.038505   0.062689   0.034970  -0.013780
     51       0.006499  -0.004421   0.037221   0.006958   0.037617  -0.032483
     52       0.030112   0.025124  -0.019099   0.069490   0.080915  -0.051448
     53      -0.238544  -0.258399   0.159275  -0.194478  -0.073034   0.045618
     54      -0.020798  -0.029805   0.062424  -0.007559   0.018398   0.001375
     55      -0.228227  -0.258916   0.150085  -0.149841  -0.014210  -0.009369
     56      -0.108869  -0.122683   0.078195  -0.087430  -0.027889   0.031119
     57       0.000154   0.022549  -0.015962  -0.036802   0.006640   0.023330
     58      -0.014048   0.027369  -0.010335   0.013083   0.067149  -0.009657
     59       0.129955  -0.124798   0.032643   0.125220  -0.086475  -0.006109
     60      -0.071813  -0.405576   0.226303  -0.083201  -0.141680   0.093826
     61       0.108868  -0.176243   0.045374   0.123230  -0.050884  -0.011646
     62       0.050190   0.104703  -0.050429   0.064004   0.046227  -0.018929
     63       0.020917   0.015389   0.015574   0.025326   0.037484  -0.020288
     64      -0.022722   0.035405  -0.038644  -0.011425   0.069591   0.013755
     65       0.066575   0.397324  -0.191545   0.088509   0.176504  -0.077986
     66       0.022377  -0.007280   0.026616  -0.001498   0.012362   0.023422
     67       0.034489  -0.040944   0.018350   0.033691  -0.021726  -0.035176
     68      -0.009140   0.109308  -0.080910  -0.070567   0.094582   0.049898
     69       0.017348   0.026207  -0.023563  -0.064817  -0.044630  -0.003569
     70       0.013872   0.033963  -0.008486  -0.005018   0.012968  -0.059979
     71       0.085298  -0.069243   0.008572   0.056964  -0.085022   0.136835
     72       0.001391   0.004633   0.001092  -0.025694   0.000948  -0.000756
     73       0.019494   0.008057  -0.008625   0.009231  -0.010698  -0.058584
     74       0.067917   0.013925   0.031316  -0.001738  -0.029115   0.148088
     75       0.055289   0.003657  -0.045693  -0.062357  -0.090531   0.017844
     76       0.051214  -0.002931   0.012284   0.014167  -0.046852   0.023697
     77      -0.075769   0.076097  -0.009968  -0.088067   0.019868  -0.088367
     78       0.022020   0.032268   0.008981  -0.082513  -0.118185   0.016003
     79      -0.011420   0.039583   0.095669   0.002852  -0.035401   0.002780
     80      -0.015581  -0.007466  -0.040771   0.000211   0.013595   0.083944
     81      -0.022057   0.012459   0.009873  -0.032899  -0.010861   0.034023
     82      -0.001969   0.026558   0.000076  -0.004941  -0.025332   0.031731
     83       0.034335   0.021115   0.147146   0.021834  -0.072972  -0.092441
     84      -0.016654   0.025238   0.039841  -0.025108  -0.032710  -0.003456
     85      -0.007877   0.049769   0.077036  -0.031608  -0.054302  -0.036780
     86      -0.014424  -0.070812  -0.108685   0.048112   0.041891   0.126971
     87       0.051201   0.012322  -0.099257  -0.132663  -0.154186  -0.023061
     88      -0.066950   0.052640   0.190987   0.073230   0.037366   0.110883
     89       0.018259   0.035018   0.100360  -0.001201  -0.042895  -0.011424
     90      -0.029683  -0.009360  -0.023738  -0.007096   0.001676  -0.055396
     91      -0.007411  -0.012667  -0.053209  -0.036552  -0.016848  -0.084222
     92      -0.034881  -0.058765  -0.141015   0.011533   0.047343   0.027732
     93      -0.049220  -0.047423  -0.102299   0.015032   0.034187  -0.073362
     94       0.021983  -0.036746  -0.090650  -0.027740  -0.004544  -0.024537
     95      -0.023712   0.007599  -0.016344  -0.024464  -0.003413  -0.013755
     96      -0.012452  -0.009920   0.002670   0.039471   0.022393   0.004770
     97      -0.011392  -0.066614  -0.171451  -0.024531   0.012122  -0.018848
     98      -0.025744   0.010606  -0.006205  -0.027297  -0.004833  -0.092346
     99       0.003904   0.019741   0.081882   0.050238   0.013221   0.014858
    100       0.003832  -0.032457  -0.086768  -0.021803   0.001951  -0.031194
    101       0.006144   0.009435  -0.002315  -0.020529  -0.020205  -0.003095
    102      -0.013406   0.027110   0.083096   0.039201   0.009075  -0.023185
    103       0.029350   0.030347   0.039788  -0.045494  -0.041075  -0.014178
    104       0.023674  -0.034663  -0.064311   0.012525   0.009586   0.050469
    105      -0.037531  -0.026312  -0.055424   0.024594   0.028064  -0.020974
    106       0.041883  -0.007334  -0.035264  -0.025714  -0.020314   0.069626
    107       0.007416   0.021532   0.051598  -0.013554  -0.017594  -0.065632
    108      -0.003491  -0.022840  -0.016048   0.056689   0.033330   0.067923
    109      -0.030015  -0.140011  -0.335878  -0.020307   0.048295   0.026143
    110      -0.031233   0.067416   0.102423  -0.058177  -0.039740  -0.210938
    111      -0.050990  -0.049463  -0.117384   0.021802   0.042476  -0.005693
    112       0.060180  -0.005176  -0.021164  -0.000656  -0.012005   0.156435
    113       0.022734   0.061414   0.154711  -0.019230  -0.046620  -0.132405
    114      -0.004241   0.065243   0.168157   0.033685  -0.008627  -0.031910
    115       0.035826   0.089431   0.166389  -0.058645  -0.068292  -0.046242
    116       0.050772  -0.082621  -0.146480   0.042934   0.030954   0.156065
    117      -0.078798  -0.089901  -0.200017   0.025690   0.066756  -0.121313
    118       0.024579  -0.057518  -0.115014  -0.009531   0.019081  -0.014790
    119      -0.029655   0.040103   0.029878  -0.045616  -0.033555  -0.022902
    120       0.047583  -0.011774   0.037056  -0.017724  -0.042286   0.005189
    121       0.045303  -0.090100   0.045361   0.051486  -0.041464  -0.056126
    122      -0.049182   0.262819  -0.166207  -0.118907   0.173130   0.115229
    123      -0.038923   0.022159   0.034618  -0.043420  -0.035067   0.091449
    124       0.003585   0.008028  -0.045248   0.008354  -0.009229   0.119020
    125       0.016372   0.090872   0.308348  -0.030357  -0.127100  -0.438941
                 24         25         26         27         28         29    
      0       0.002182  -0.151060  -0.011693   0.098551  -0.053812   0.065700
      1      -0.010737  -0.148073  -0.005489  -0.000970   0.021191  -0.125552
      2       0.015346  -0.034806  -0.002199   0.016145   0.019456  -0.059301
      3       0.039654  -0.047148   0.015953   0.031112   0.126442  -0.101337
      4       0.001724  -0.121170  -0.013895  -0.023546  -0.050521  -0.120269
      5       0.012288  -0.117611   0.002718   0.006350   0.052859  -0.130494
      6       0.082853  -0.008304   0.030231  -0.112568   0.051533  -0.097803
      7       0.074957  -0.026668   0.004735  -0.165887  -0.120157  -0.055079
      8       0.045390   0.005581   0.004659  -0.025986   0.006476  -0.031269
      9       0.011347  -0.009112   0.017068   0.146681   0.313198  -0.232956
     10       0.001866  -0.102391  -0.011044  -0.048707  -0.014042  -0.218448
     11       0.002946  -0.095699   0.004277   0.032052   0.127244  -0.214196
     12       0.059768  -0.018972   0.023862  -0.034936   0.129451  -0.149791
     13      -0.054446  -0.178072  -0.031290   0.160837   0.011236  -0.072361
     14       0.033365  -0.168381  -0.004773  -0.057556  -0.165548   0.085528
     15       0.088106  -0.054483   0.011382  -0.064966  -0.036394  -0.083398
     16       0.094093   0.105123   0.025655  -0.139360   0.011829   0.030954
     17      -0.155338  -0.029663  -0.005122  -0.132844  -0.003368  -0.031050
     18      -0.021489   0.067426   0.040091  -0.216664   0.093514  -0.028018
     19      -0.077137  -0.126498   0.003427  -0.197919  -0.011508  -0.175806
     20       0.181477   0.117361   0.007719  -0.012378  -0.097185   0.100759
     21       0.188144  -0.000013   0.045588  -0.088938   0.081916  -0.118800
     22       0.248831   0.075460   0.001096  -0.095749  -0.246213   0.075765
     23       0.196992   0.067457   0.010116   0.023913  -0.053767   0.033803
     24       0.034745  -0.080092  -0.011349  -0.006522  -0.124015   0.041617
     25       0.071632   0.098725   0.022057  -0.105552   0.044440   0.044078
     26      -0.079714  -0.058353   0.002686  -0.083903  -0.052611   0.031524
     27      -0.009622  -0.142996  -0.019017   0.084078  -0.097158   0.039142
     28       0.001402  -0.019391   0.022790  -0.061712   0.173028  -0.000300
     29       0.046717   0.067406  -0.005549   0.106913  -0.018225   0.097721
     30      -0.007817  -0.115858   0.000498  -0.001508  -0.027167   0.119140
     31      -0.028239  -0.292173  -0.011157   0.040546   0.048317  -0.285758
     32       0.002568  -0.084436   0.000674  -0.009751   0.042333  -0.103873
     33      -0.004910  -0.215281  -0.030817   0.153483  -0.159625   0.003586
     34      -0.014581  -0.164857  -0.020406   0.016691  -0.093498  -0.121110
     35       0.018226   0.048764  -0.004064  -0.050214  -0.081583   0.088609
     36      -0.054478   0.074878  -0.007298   0.133202  -0.034169   0.033768
     37       0.021233   0.002415   0.017140   0.030922   0.178667   0.073777
     38       0.000837   0.023579   0.012677  -0.005291   0.104824   0.050254
     39      -0.041569   0.195658   0.004445   0.066337   0.017354   0.003177
     40      -0.008631  -0.108785  -0.004266   0.172328   0.038387   0.168133
     41       0.000344   0.029474  -0.002171   0.001151  -0.017212  -0.024830
     42      -0.117081   0.072416   0.007637   0.220380   0.107742   0.160288
     43       0.079563   0.051687   0.005802   0.089150   0.098615   0.108170
     44      -0.001300   0.024910   0.012942   0.005199   0.108462   0.061290
     45      -0.035639   0.172137  -0.004833   0.055478  -0.057745  -0.040262
     46       0.003388   0.153458   0.031826  -0.067783   0.229517   0.002208
     47      -0.076821   0.022455   0.028868   0.032491   0.236054   0.119812
     48      -0.009935   0.192771   0.004976  -0.054750  -0.087404   0.010944
     49       0.018436  -0.053936  -0.004742   0.035840  -0.142274   0.152909
     50       0.008837   0.024357   0.003431  -0.007269  -0.065651   0.053492
     51      -0.034609   0.178829   0.019638   0.031008   0.241976  -0.040782
     52       0.011142  -0.064696   0.006845   0.076990   0.024971   0.163012
     53      -0.041472  -0.060114  -0.025903   0.202050  -0.000055  -0.007840
     54      -0.044983   0.230197  -0.000880   0.098046  -0.054105   0.003734
     55      -0.048523  -0.190399  -0.029596   0.367009   0.040488   0.173952
     56      -0.005904   0.018861  -0.006100   0.032299  -0.019074  -0.022530
     57       0.003914  -0.018451  -0.009774  -0.068029  -0.064306   0.072122
     58      -0.003796   0.034718  -0.005528   0.028319  -0.095084   0.075060
     59       0.048487  -0.038034   0.013180  -0.054171  -0.084264   0.023735
     60       0.032238   0.319587   0.016589  -0.210393  -0.193953  -0.168853
     61       0.062517  -0.067625   0.008307  -0.061301  -0.231861   0.134035
     62       0.004197   0.016078   0.002405   0.005808  -0.052930   0.065196
     63      -0.036982   0.173365   0.002340   0.044292  -0.022438   0.066795
     64       0.035077  -0.112069  -0.012271  -0.041453  -0.163245   0.169842
     65      -0.045014  -0.089138  -0.011875   0.168346   0.080278   0.210150
     66       0.016649  -0.051151  -0.000173  -0.000404   0.000698  -0.132647
     67      -0.019426   0.112419   0.005208  -0.034697   0.048175  -0.044169
     68       0.003062   0.074966  -0.005020  -0.066295  -0.063940  -0.030048
     69      -0.042332  -0.007256  -0.015307  -0.063137  -0.012002   0.000761
     70      -0.085404   0.064014  -0.019166   0.072321  -0.092718  -0.072716
     71       0.107764  -0.021032  -0.001361   0.126752   0.083058  -0.003332
     72      -0.002827  -0.030070   0.001623  -0.079914   0.018596  -0.089315
     73      -0.101801   0.081516  -0.024329   0.066053  -0.070673  -0.085031
     74       0.123518   0.023464   0.003870   0.138947   0.072484  -0.003207
     75      -0.033976  -0.004792  -0.020673  -0.036000   0.033057   0.065097
     76      -0.038370   0.061700  -0.012046   0.149177  -0.025701  -0.206884
     77      -0.058521   0.034720   0.005438  -0.001028  -0.049571  -0.049797
     78      -0.080267  -0.013614  -0.012959  -0.066596   0.099486   0.144519
     79      -0.025111   0.014557   0.013965   0.029268   0.001030  -0.031539
     80      -0.133398   0.002148  -0.064012  -0.002743   0.029064  -0.017402
     81       0.013031  -0.045104   0.007924  -0.085044   0.062576   0.001469
     82      -0.085811   0.043562  -0.033976   0.079941   0.000059   0.014137
     83      -0.016753   0.010389   0.027460   0.018757  -0.007193  -0.005990
     84       0.016152  -0.026842   0.012687  -0.062677   0.050914   0.064495
     85       0.036668   0.015314   0.037625   0.034962   0.010226  -0.001228
     86      -0.212888  -0.006581  -0.111186  -0.018498   0.028168  -0.024401
     87      -0.060130   0.030483  -0.011180   0.021167   0.103825   0.045926
     88      -0.127306  -0.046260  -0.032104  -0.111392   0.012664   0.112391
     89       0.012201  -0.010568   0.020039  -0.028664   0.014123   0.045271
     90       0.091293   0.002355   0.034656  -0.004249   0.006216   0.024338
     91       0.145801   0.013992   0.052725   0.043614  -0.015283  -0.015734
     92      -0.035528  -0.000341  -0.031093  -0.020157  -0.012032   0.024562
     93       0.104490   0.027584  -0.044264   0.030048  -0.021484   0.011620
     94       0.062878  -0.006202  -0.127076  -0.040837   0.019924   0.026864
     95       0.035522  -0.015716   0.209138  -0.000343  -0.012877   0.028426
     96      -0.041654   0.019105   0.051342   0.041234  -0.026051  -0.022000
     97       0.033095   0.002856   0.117275   0.017912  -0.017168   0.015770
     98       0.166008   0.015452  -0.108667   0.006619  -0.002255   0.006841
     99      -0.065275   0.025234  -0.084694   0.033256  -0.014471  -0.035671
    100       0.059284   0.005813  -0.114655  -0.014111   0.005325   0.018739
    101      -0.002693  -0.002626   0.181385   0.032570  -0.009072  -0.007877
    102      -0.006109   0.032678  -0.001472   0.066087  -0.030809  -0.045680
    103       0.041304  -0.019620   0.006272  -0.037078   0.030497   0.024029
    104      -0.095938  -0.002170  -0.025795  -0.013841   0.003835   0.005669
    105       0.002782   0.022913   0.086509   0.047148  -0.030422  -0.001825
    106      -0.106402  -0.029200   0.108962  -0.038671   0.019578   0.025716
    107       0.115375   0.007692  -0.177125  -0.017479   0.017380   0.007673
    108      -0.141084   0.012225   0.097048   0.043827  -0.026757  -0.028782
    109      -0.041451  -0.017122   0.262130  -0.015618  -0.029921   0.063789
    110       0.362798   0.033332  -0.254881   0.016490   0.008841  -0.005307
    111      -0.015089   0.015182   0.144841   0.032233  -0.034019   0.020118
    112      -0.272268  -0.031199   0.175370  -0.028284   0.007374   0.002577
    113       0.221882   0.023466  -0.309007   0.005679   0.027683  -0.021839
    114       0.012628   0.029153  -0.034972   0.055293  -0.019573  -0.051492
    115       0.102574  -0.022984  -0.043984  -0.048820   0.044707   0.016993
    116      -0.282030  -0.013040   0.021045  -0.026395   0.005291   0.006142
    117       0.173356   0.055448  -0.137659   0.062425  -0.049837  -0.002494
    118       0.049634  -0.002682  -0.352496  -0.087448   0.031233   0.042868
    119       0.049743  -0.022568   0.526962   0.059744  -0.030173   0.008376
    120      -0.053890  -0.068097  -0.028930   0.171937  -0.032584  -0.200253
    121      -0.017121   0.087893   0.010615  -0.033918   0.091460  -0.037241
    122       0.013683   0.155402  -0.013257  -0.114483  -0.191520  -0.040285
    123      -0.011355  -0.079477   0.012775  -0.109113   0.125842   0.063721
    124      -0.097876   0.047576  -0.079081   0.133192   0.034235   0.008199
    125       0.045500  -0.000814   0.192873  -0.182388  -0.148691  -0.001552
                 30         31         32         33         34         35    
      0       0.029162  -0.051635   0.209073  -0.063785  -0.036455   0.062733
      1       0.019496   0.004321   0.001716   0.044589  -0.016641  -0.001365
      2       0.018737   0.014822  -0.025402   0.039309  -0.004989   0.005167
      3       0.052612   0.011292   0.026140   0.086756   0.052808   0.051213
      4      -0.005004   0.001612  -0.033112   0.024850  -0.017814  -0.002446
      5       0.035072   0.003926   0.005842   0.108739   0.021888   0.025447
      6      -0.010014  -0.000276  -0.055625  -0.004793   0.167686   0.087166
      7      -0.071587  -0.029347  -0.073040  -0.067286   0.148787   0.072820
      8      -0.018243  -0.014737  -0.017181   0.014943   0.020410   0.010554
      9       0.133176   0.056724  -0.017899   0.394129  -0.077298  -0.026711
     10       0.001964   0.031350  -0.133969   0.127142  -0.005130  -0.013261
     11       0.061488   0.030621  -0.053645   0.250226  -0.013774  -0.004567
     12       0.029800   0.020690  -0.054572   0.098651   0.125078   0.063126
     13       0.076452  -0.001138   0.126043   0.116253  -0.219165  -0.052894
     14      -0.041725  -0.067156   0.144450  -0.263150   0.097809   0.104312
     15       0.007919   0.039894  -0.089012  -0.030281   0.065012  -0.014359
     16      -0.020393  -0.036661   0.042909  -0.017071   0.061760   0.110532
     17      -0.162713  -0.122460  -0.011189   0.009987   0.023170  -0.048933
     18      -0.121640  -0.113645   0.015867   0.030891   0.209031   0.101186
     19      -0.095533  -0.079465  -0.037243   0.141528   0.138239   0.038651
     20      -0.011642   0.018211  -0.041761  -0.190410   0.039846   0.048917
     21       0.074428   0.048839  -0.047788   0.033855   0.205593   0.149766
     22      -0.019673   0.048134  -0.111453  -0.310302   0.119615   0.103759
     23       0.051195   0.053622  -0.037712  -0.109454   0.025466   0.058020
     24      -0.018595  -0.036369   0.057535   0.002049   0.017892  -0.012341
     25      -0.000444  -0.012474   0.047701   0.027324   0.013433  -0.032292
     26      -0.074740  -0.029323  -0.025510  -0.085232   0.078234   0.041397
     27       0.000433  -0.037754   0.105277  -0.028831  -0.019555   0.037180
     28       0.041272   0.016750   0.069500  -0.045813  -0.016979  -0.051433
     29       0.020005   0.005581   0.021861  -0.039994  -0.014009   0.020640
     30       0.012322  -0.044314   0.226902  -0.185867  -0.045617   0.017274
     31       0.055539   0.000161  -0.001405   0.261975  -0.009805   0.024719
     32       0.028441   0.015586  -0.012376   0.073656  -0.006845  -0.001454
     33       0.009453  -0.069519   0.162847   0.042863  -0.030752   0.100246
     34      -0.015448  -0.013530  -0.025452   0.045503  -0.022891   0.014570
     35      -0.040518   0.000981  -0.005622  -0.185078  -0.029697  -0.024157
     36      -0.028288   0.015565  -0.113530   0.004365   0.016992   0.061272
     37       0.069385   0.051918   0.052965  -0.104854  -0.034147  -0.080216
     38       0.027656   0.011428   0.062048  -0.051496  -0.025518  -0.066845
     39      -0.011336   0.010700  -0.062180   0.000663  -0.001257   0.003089
     40       0.009637   0.078367  -0.148433  -0.067304   0.030318  -0.002758
     41       0.004427  -0.007231   0.025140   0.019830  -0.018569  -0.034788
     42      -0.077871   0.076814  -0.366707  -0.088559   0.104919   0.196580
     43       0.096795   0.043904   0.111261  -0.108062  -0.053294  -0.072757
     44       0.023743   0.014597   0.041939  -0.057265  -0.016125  -0.048753
     45      -0.012986  -0.008883  -0.023294   0.055086  -0.019368  -0.016566
     46       0.055600   0.046209   0.032399  -0.054320  -0.034147  -0.129960
     47      -0.036754   0.061119  -0.196576  -0.097745   0.064625   0.049362
     48      -0.008628   0.002616   0.005450   0.085359   0.000959  -0.109583
     49       0.001982   0.056957  -0.067038   0.100696   0.013738  -0.165268
     50       0.010037   0.030823  -0.006673   0.069489  -0.003585  -0.109075
     51       0.046233   0.000044   0.079305  -0.161895  -0.044676   0.040453
     52       0.050562   0.082354  -0.013279  -0.002065  -0.022583  -0.203102
     53      -0.082895  -0.012551  -0.265479  -0.107646   0.095484   0.374117
     54      -0.027210   0.025570  -0.137964   0.052441   0.014715   0.012189
     55      -0.080858   0.070049  -0.444178  -0.185228   0.147587   0.407282
     56      -0.009930  -0.006972  -0.023921   0.003496   0.000046   0.027559
     57      -0.061340  -0.074168   0.063719   0.011413   0.002169  -0.060244
     58      -0.055560  -0.025940  -0.033222   0.094250   0.001794  -0.084587
     59       0.167943   0.171309  -0.001354  -0.003996  -0.003751   0.045344
     60       0.209776   0.144926   0.186294   0.160177  -0.104807  -0.197457
     61       0.208101   0.253556  -0.027231   0.100895  -0.011374  -0.125992
     62      -0.010947   0.014219  -0.019284   0.062200   0.003083  -0.100839
     63      -0.060845  -0.014209  -0.094121   0.039986   0.033957  -0.034597
     64      -0.105275  -0.073850   0.014119   0.130622   0.017960  -0.258933
     65      -0.245939  -0.159699  -0.175616  -0.020151   0.093492  -0.013927
     66      -0.014611   0.021425  -0.111088  -0.053174  -0.140589  -0.059920
     67      -0.073884  -0.108378   0.052257  -0.015878  -0.192855   0.129049
     68       0.078227   0.073330   0.000944  -0.056471  -0.072391   0.080097
     69      -0.012542  -0.027452   0.040126  -0.051451  -0.086359  -0.001794
     70       0.020083   0.023283  -0.008739   0.008692  -0.097947   0.040772
     71      -0.041225  -0.111462  -0.007636   0.030789  -0.079568  -0.028775
     72      -0.002427   0.036634  -0.067838  -0.094465  -0.154096  -0.078206
     73       0.042795   0.021356   0.010680   0.021226  -0.174028   0.139159
     74      -0.122562  -0.156034  -0.019237   0.024744  -0.057108  -0.013086
     75      -0.005987  -0.012679   0.015387   0.020498  -0.067733   0.025983
     76      -0.006802  -0.023717   0.034527  -0.116742   0.052901  -0.141345
     77       0.046000  -0.028028  -0.001011  -0.050147   0.019935  -0.028175
     78       0.039809  -0.003961  -0.012182   0.064785   0.027569   0.065926
     79       0.041878  -0.057540   0.019670  -0.034783   0.160596  -0.069968
     80      -0.101452   0.163750   0.056296  -0.009958   0.058170  -0.023889
     81      -0.016165   0.050015  -0.080305  -0.055306  -0.059651  -0.110187
     82       0.026830   0.012562   0.010210   0.082282   0.036123   0.114988
     83       0.012821   0.021819   0.002004   0.039496   0.002756   0.046494
     84       0.007509   0.020561  -0.060297   0.018172  -0.112466  -0.004552
     85       0.043061  -0.049057   0.012839   0.000723   0.167158  -0.029854
     86      -0.093129   0.188777   0.047005  -0.007072   0.047426  -0.007160
     87       0.034314   0.039301   0.011870   0.024571   0.212132  -0.017630
     88      -0.011801  -0.020232   0.021322   0.024119  -0.052157   0.039990
     89       0.042599  -0.062112  -0.010935   0.013029   0.008237   0.014018
     90      -0.057125   0.077453  -0.006879   0.015168  -0.146740   0.012504
     91      -0.100783   0.125006   0.071190   0.008346   0.053218   0.002168
     92       0.139086  -0.209643  -0.061446  -0.012049  -0.001412  -0.028343
     93      -0.002629  -0.004366   0.012619   0.018721  -0.039504   0.032414
     94      -0.008018   0.015783  -0.022914   0.005548  -0.122123  -0.014092
     95      -0.002212  -0.023149  -0.019796   0.008721  -0.110763  -0.003848
     96      -0.002922  -0.005738   0.020476  -0.005434  -0.016637  -0.019443
     97      -0.018100   0.006170   0.025378   0.014074   0.035487   0.027001
     98       0.018128  -0.046201   0.002982   0.000730   0.039582  -0.009547
     99       0.036413  -0.043363   0.009156  -0.013407   0.059693  -0.019871
    100       0.052034  -0.074443  -0.010533   0.009373   0.104603   0.032362
    101      -0.071256   0.094492   0.049796   0.009322   0.066821   0.030231
    102      -0.010639   0.013349   0.052943  -0.005640   0.127771   0.004626
    103      -0.044265   0.073944  -0.011392   0.008935  -0.072729   0.014300
    104       0.063038  -0.078072  -0.030440  -0.002454   0.018512   0.000548
    105       0.015717  -0.029976   0.017734   0.015375   0.044555   0.048552
    106       0.021421  -0.017222  -0.039203   0.002302  -0.065296  -0.002665
    107      -0.034070   0.059066   0.004432   0.009369  -0.038723   0.020862
    108       0.044965  -0.082019   0.007885  -0.019479   0.061680  -0.042294
    109       0.095544  -0.166331  -0.053072   0.013724  -0.093301   0.005060
    110      -0.117980   0.163349   0.063104   0.020971  -0.017919   0.032664
    111       0.062022  -0.108189  -0.020100   0.015435  -0.028576   0.041322
    112       0.121548  -0.159803  -0.061480  -0.021439   0.082815  -0.026879
    113      -0.159800   0.259869   0.081981   0.020402   0.027396   0.045902
    114      -0.031053   0.043007   0.048342  -0.015801   0.072943  -0.025274
    115      -0.081918   0.123255  -0.011604  -0.003095  -0.142526  -0.019765
    116       0.116493  -0.131872  -0.061190  -0.007009  -0.010604  -0.023564
    117       0.060629  -0.117843   0.024448   0.009405   0.047426   0.009265
    118       0.105873  -0.145376  -0.088190  -0.009544  -0.147111  -0.033709
    119      -0.163506   0.203809   0.069747   0.030456  -0.086240   0.026249
    120      -0.020786  -0.003425  -0.137507  -0.039043  -0.328125  -0.068738
    121      -0.173798  -0.212713   0.043947  -0.009488  -0.164465   0.103436
    122       0.389329   0.397741   0.038780  -0.081461  -0.116256   0.179816
    123      -0.046465   0.068820  -0.050171  -0.056153   0.175531  -0.202751
    124      -0.087703   0.047942   0.042312   0.113974   0.038182   0.144105
    125       0.452591  -0.109222  -0.124521  -0.083263  -0.064999  -0.039605
                 36         37         38         39         40         41    
      0      -0.042715  -0.033170  -0.048118   0.098883   0.022466   0.003887
      1      -0.016037   0.000484   0.005269  -0.009196   0.001611   0.000550
      2       0.014872   0.001802   0.018413  -0.007216   0.009035   0.006170
      3       0.012768  -0.037232   0.010996   0.013986   0.022345   0.008369
      4      -0.018843   0.008463  -0.010979  -0.014182  -0.011531  -0.005861
      5       0.033903  -0.017441   0.027781   0.015155   0.024706   0.011872
      6      -0.038045  -0.056917  -0.019889  -0.038016  -0.003731  -0.001291
      7      -0.040253  -0.044421  -0.047788  -0.013682  -0.017215  -0.009923
      8       0.015426  -0.002984  -0.018748   0.016575  -0.015238  -0.010742
      9       0.239219   0.017331   0.174481   0.079339   0.087021   0.045511
     10       0.039745   0.020010   0.053614  -0.063928   0.008983   0.012892
     11       0.132261   0.004986   0.107690   0.015231   0.053752   0.031570
     12       0.010678  -0.048937   0.011542  -0.030582   0.009397   0.004221
     13       0.067696   0.051556   0.050107   0.104365   0.043437   0.018685
     14      -0.216593  -0.069997  -0.169900   0.003458  -0.040936  -0.031829
     15      -0.069083  -0.000877  -0.003856  -0.073667  -0.018619  -0.005227
     16       0.084097  -0.037967   0.018419   0.107864   0.044782   0.017816
     17       0.009316   0.025289  -0.130922   0.025002  -0.096620  -0.055167
     18       0.066088  -0.058473  -0.109661   0.079086  -0.054827  -0.037524
     19       0.102955  -0.025106  -0.086821   0.081424  -0.060693  -0.042409
     20      -0.111472  -0.023514   0.006406  -0.059906   0.020663   0.016259
     21      -0.006266  -0.093631   0.093393  -0.026818   0.086566   0.049296
     22      -0.212956  -0.055804   0.009351  -0.133642   0.037253   0.030459
     23      -0.073795  -0.028004   0.065828  -0.050851   0.058309   0.036373
     24       0.029693   0.007613  -0.024689  -0.002121  -0.025065  -0.013189
     25       0.059950   0.010863  -0.048004   0.068763  -0.029075  -0.018637
     26      -0.088466  -0.052519   0.146943  -0.044643   0.126682   0.075187
     27       0.001365  -0.012498  -0.016532   0.042316   0.008459   0.002802
     28      -0.051231   0.006645   0.022349  -0.034462   0.007299   0.006083
     29       0.023397   0.006000  -0.050774   0.033618  -0.028744  -0.018755
     30      -0.136182  -0.022848  -0.056759   0.050553   0.010989  -0.002690
     31       0.107208  -0.009667   0.091681   0.020475   0.061833   0.037233
     32       0.018812   0.000034   0.048001  -0.013937   0.029320   0.017962
     33       0.049020  -0.033518  -0.033669   0.132678   0.031947   0.010861
     34       0.005133   0.005675  -0.016716   0.007299  -0.014382  -0.007819
     35      -0.114036   0.015617  -0.069068  -0.028292  -0.051085  -0.029966
     36       0.039257  -0.012302  -0.006815   0.035208   0.004096  -0.000057
     37      -0.072223   0.025117   0.005887  -0.082223  -0.024886  -0.007925
     38      -0.059291   0.014660  -0.005754  -0.050744  -0.011220  -0.001852
     39      -0.017598  -0.002507  -0.005633  -0.015455  -0.000296   0.000751
     40       0.052986   0.014897   0.018284  -0.009940  -0.015712  -0.007437
     41      -0.033404   0.004100  -0.005193  -0.016090   0.003018   0.002040
     42       0.185604  -0.020968   0.034153   0.085339  -0.013713  -0.012854
     43      -0.071246   0.025810  -0.037398  -0.060372  -0.045219  -0.020561
     44      -0.043546   0.012147  -0.005400  -0.040781  -0.013353  -0.004132
     45      -0.040124  -0.005818  -0.017954  -0.008748   0.011985   0.007548
     46      -0.107634   0.029417   0.021730  -0.122365  -0.014732   0.000593
     47       0.080025   0.004018   0.046780  -0.002446  -0.012968  -0.006630
     48      -0.016340   0.012736   0.010784  -0.006828   0.014129   0.007403
     49       0.016928   0.025489   0.021177   0.010083   0.014052   0.005074
     50      -0.010330   0.012592   0.015177   0.017427   0.002548  -0.001964
     51      -0.103628   0.001613  -0.014862  -0.117200  -0.033707  -0.007469
     52      -0.070337   0.037745   0.021251  -0.063079  -0.006232  -0.001370
     53       0.226714  -0.043157  -0.008800   0.097872  -0.015199  -0.009901
     54       0.022083  -0.007358   0.003246   0.032387   0.003014  -0.003112
     55       0.319590  -0.031950   0.015799   0.103192  -0.032278  -0.017876
     56       0.009103  -0.003139  -0.004542   0.003145   0.000439   0.000148
     57       0.058105   0.028820   0.032698  -0.043751  -0.001536   0.004074
     58      -0.047146   0.002810  -0.020434  -0.011890   0.021109   0.010952
     59       0.067013  -0.005797   0.032459   0.057023  -0.035630  -0.024859
     60      -0.139524   0.005687   0.025418   0.024946  -0.005447  -0.012842
     61       0.069208   0.014190   0.070305   0.098951  -0.027627  -0.025025
     62      -0.003863   0.013577   0.012374   0.010924   0.005003   0.000431
     63       0.017799   0.007195  -0.001740  -0.017898   0.013153   0.009550
     64       0.025717   0.050713   0.021631  -0.029405   0.034922   0.021809
     65       0.087918   0.021369  -0.015232  -0.045845   0.027532   0.023115
     66      -0.082774   0.074952  -0.005061  -0.091274  -0.043984  -0.017286
     67       0.098928   0.039704   0.014855   0.088718   0.011776   0.004440
     68       0.030701   0.014576   0.002998   0.004977   0.015402   0.010598
     69       0.085422   0.044442   0.105615  -0.071556  -0.010854   0.000390
     70      -0.073123  -0.014791   0.069119  -0.027840   0.018294   0.010134
     71       0.093580   0.077409  -0.192953  -0.090116  -0.068434  -0.025691
     72       0.029598   0.085873  -0.000042   0.027702  -0.032253  -0.014957
     73      -0.045275   0.020710  -0.061626  -0.086039  -0.041061  -0.015531
     74      -0.111623  -0.016382   0.130717  -0.007507   0.100883   0.052621
     75       0.056935   0.032850   0.057959  -0.133095  -0.025751  -0.000751
     76       0.107311  -0.010610   0.029382   0.089962   0.025039   0.005496
     77       0.015060  -0.017590   0.072267   0.025180   0.008868  -0.006311
     78       0.003323  -0.019181   0.027996  -0.047711  -0.016456  -0.007870
     79       0.038273  -0.044177   0.011712   0.067825  -0.011708  -0.024020
     80       0.034679  -0.008778  -0.040180  -0.017396   0.076504   0.086819
     81      -0.018304   0.041059  -0.063377   0.147128   0.034439   0.006624
     82      -0.193745  -0.051641  -0.140367  -0.023649   0.043687   0.025746
     83      -0.099391  -0.052531   0.023083   0.096313  -0.119473  -0.085321
     84      -0.075637   0.004614  -0.043960   0.127851   0.023039   0.006348
     85      -0.038291  -0.034928  -0.042283   0.044588   0.002146  -0.001645
     86       0.003165  -0.004649  -0.050707   0.012417   0.006058  -0.009963
     87       0.004054  -0.073829  -0.024727   0.040231   0.017480   0.002674
     88       0.074314   0.025085   0.066487  -0.091088  -0.008349   0.008743
     89       0.020634  -0.004113   0.023349  -0.011432  -0.023361  -0.022895
     90      -0.008381  -0.076336  -0.014024   0.088423   0.010937   0.031449
     91       0.039238  -0.081931   0.007112  -0.086484  -0.063742   0.042540
     92      -0.001387  -0.117912   0.006272  -0.029289   0.034229  -0.059538
     93      -0.007623   0.045794   0.004146   0.047756   0.037454  -0.000830
     94       0.022639  -0.273711  -0.019290  -0.014120   0.014240  -0.000227
     95      -0.005232  -0.161687   0.004332   0.050659  -0.016404   0.041210
     96       0.038201  -0.263982  -0.006950  -0.091104  -0.011443  -0.015180
     97       0.022593   0.016350   0.020228  -0.121026   0.002963  -0.053027
     98       0.016079  -0.066537   0.027877  -0.054480  -0.087937   0.058142
     99       0.009139  -0.074104  -0.008567  -0.024498  -0.034337   0.032146
    100      -0.029899   0.317889   0.041677  -0.004729  -0.063827   0.043455
    101       0.010878   0.173399   0.009867  -0.086053   0.054723  -0.098329
    102       0.019760   0.056236   0.003663  -0.105734  -0.008506  -0.030858
    103      -0.014011   0.063153  -0.013920   0.067396   0.064509  -0.038782
    104      -0.028367   0.087888   0.005306   0.063305  -0.031913   0.053030
    105      -0.033062   0.291963   0.020974   0.092090   0.013019   0.033181
    106      -0.028041  -0.003138  -0.008757   0.084682  -0.028325   0.066130
    107      -0.008789   0.088692  -0.013022   0.043998   0.103575  -0.085755
    108       0.028324  -0.179459   0.013714  -0.093724   0.040970  -0.129075
    109       0.022749  -0.176052   0.008825  -0.127798   0.152273  -0.234864
    110       0.031999  -0.104804   0.005923  -0.043810  -0.250927   0.327986
    111      -0.042557   0.206436   0.019664   0.153160   0.102130  -0.047038
    112      -0.041190   0.134983   0.001070   0.013361   0.069252  -0.118821
    113       0.013859   0.182882  -0.014992  -0.031352  -0.095312   0.138035
    114       0.043324  -0.155189  -0.024054  -0.133564   0.099385  -0.159486
    115       0.017862  -0.178415  -0.048589   0.018532   0.260734  -0.279279
    116      -0.037720  -0.100561  -0.002023   0.136089  -0.315002   0.421783
    117       0.032332  -0.135795   0.019068  -0.116991   0.062858  -0.103351
    118       0.007798  -0.266711  -0.025122   0.020342   0.193962  -0.210755
    119       0.015494  -0.155925   0.012435   0.011993  -0.262816   0.337302
    120      -0.195139   0.129055   0.004342  -0.273632  -0.059706  -0.010984
    121       0.077520   0.036091  -0.001142   0.094875   0.058628   0.033267
    122       0.124691   0.010906   0.040893   0.034398  -0.121976  -0.078845
    123      -0.031699  -0.034531  -0.014659   0.314050  -0.010533  -0.065819
    124      -0.311701  -0.128186   0.077037   0.127829  -0.150801  -0.114921
    125       0.337154   0.262432  -0.813467  -0.502710   0.618048   0.461938
                 42         43         44         45         46         47    
      0       0.029513  -0.009920  -0.038406  -0.124943   0.001651  -0.030970
      1       0.002769  -0.000953  -0.012862  -0.052519   0.003472  -0.052114
      2       0.004758  -0.006597   0.007933  -0.003490   0.002269   0.058805
      3      -0.041097   0.001765  -0.020787  -0.081329   0.009770  -0.017134
      4      -0.002509   0.007451  -0.020720  -0.045838   0.002495  -0.041275
      5       0.001406  -0.010790   0.011825  -0.010491   0.001375  -0.001858
      6      -0.100211   0.019933  -0.021718  -0.032403   0.009446   0.028040
      7      -0.091941   0.028503  -0.027593   0.028918   0.001667   0.036243
      8      -0.000428   0.016441  -0.018850   0.041549  -0.006076  -0.061933
      9       0.160177  -0.073964   0.144176   0.229352  -0.027592   0.011677
     10       0.011814  -0.017980   0.054540   0.055937   0.005358   0.206331
     11       0.070699  -0.044945   0.094135   0.130868  -0.008913   0.113858
     12      -0.102827   0.018409  -0.022625  -0.036700   0.013671   0.032333
     13       0.201475  -0.058436   0.044601  -0.043455  -0.017393  -0.111475
     14      -0.164299   0.067669  -0.188736  -0.390908   0.034650  -0.168816
     15      -0.036320   0.004464   0.014122   0.023724  -0.003881  -0.031927
     16       0.079133  -0.038065   0.050484   0.002391  -0.008378   0.004419
     17      -0.043707   0.081505  -0.130251   0.044564  -0.000164   0.012771
     18      -0.070834   0.058878  -0.062703   0.100963  -0.007500   0.007017
     19      -0.046472   0.057455  -0.032640   0.184415  -0.024401  -0.171118
     20      -0.042611  -0.006816  -0.018855  -0.095570   0.017589   0.142197
     21      -0.044750  -0.050819   0.092196   0.017108   0.000319   0.012854
     22      -0.128981  -0.012607  -0.012262  -0.198334   0.035230   0.260760
     23      -0.000231  -0.040050   0.042874  -0.067884   0.009452   0.063898
     24      -0.005065   0.014490   0.012331   0.159008  -0.010113   0.024641
     25       0.026598   0.018710  -0.036303   0.056739  -0.009127  -0.038264
     26       0.030085  -0.121248   0.223801  -0.070698  -0.004954  -0.017565
     27       0.015775  -0.003580  -0.000304   0.025856  -0.001836   0.053050
     28      -0.004737  -0.011228   0.027562   0.015917  -0.002635  -0.032735
     29       0.006725   0.021426  -0.043176  -0.000863  -0.001595  -0.028998
     30       0.014167  -0.004257  -0.040637  -0.139545   0.002173  -0.183309
     31       0.060476  -0.051224   0.085767   0.062175   0.002263   0.276964
     32       0.021964  -0.025261   0.045126   0.027069   0.001966   0.116054
     33       0.068540  -0.021194  -0.006419  -0.043226  -0.001458   0.145677
     34       0.023319   0.006097  -0.018185  -0.018671   0.000468  -0.033058
     35      -0.018854   0.035016  -0.071605  -0.079374   0.000781  -0.247114
     36       0.001824   0.006372  -0.030980  -0.058994   0.004215   0.006087
     37      -0.042718   0.017953  -0.000191   0.078859   0.000078   0.031222
     38      -0.036118   0.000026   0.018579   0.034766  -0.000593   0.006213
     39      -0.025953  -0.000635   0.003141  -0.012237   0.000632  -0.000581
     40       0.007276   0.017079  -0.022724   0.010443   0.004796   0.090878
     41      -0.018164  -0.004208  -0.000964  -0.040318   0.004857   0.028890
     42       0.067038   0.050380  -0.100983   0.049405  -0.003516   0.007328
     43      -0.054579   0.029207  -0.019961   0.077443  -0.004890  -0.033804
     44      -0.027902   0.004393   0.010073   0.042635  -0.002095  -0.002542
     45      -0.039246  -0.018980   0.018197  -0.100044   0.004532  -0.058492
     46      -0.065532  -0.002917   0.042907   0.058657  -0.002106  -0.060692
     47       0.028842   0.028664  -0.035937   0.095384  -0.003846   0.020402
     48       0.013078  -0.029576   0.053815  -0.008079  -0.003651  -0.040577
     49       0.018459  -0.019545   0.011900  -0.080219   0.004406  -0.017493
     50       0.010311   0.015430  -0.058573  -0.053014   0.006146   0.042295
     51      -0.095782   0.022193   0.037122   0.198810  -0.007540   0.058158
     52      -0.039918   0.011616  -0.040775  -0.099078   0.020383   0.215755
     53       0.080723   0.006128   0.034787   0.176717  -0.027292  -0.232589
     54       0.000361   0.026448  -0.086842  -0.085097   0.008659   0.063123
     55       0.107434   0.021195   0.028370   0.233770  -0.029509  -0.196627
     56      -0.001921  -0.001783   0.001667  -0.008947   0.000168  -0.011140
     57       0.027924  -0.024889   0.101385   0.172337  -0.010725   0.004718
     58      -0.017555  -0.032671   0.040319  -0.078512   0.002824  -0.032707
     59       0.038884   0.071928  -0.115775   0.141205  -0.008330  -0.037707
     60      -0.028006   0.088738  -0.250019  -0.164144   0.026952   0.218853
     61       0.057351   0.093804  -0.210935   0.031633  -0.000416  -0.022230
     62       0.012907   0.003280  -0.028814  -0.042696   0.003919   0.023266
     63       0.014496  -0.054825   0.120866   0.019498  -0.009560  -0.103224
     64       0.031570  -0.081908   0.161759  -0.024807  -0.004583  -0.060204
     65       0.027962  -0.118223   0.276530   0.074337  -0.019289  -0.169725
     66       0.072705   0.009667  -0.033812  -0.042371  -0.000463  -0.041861
     67       0.184788  -0.014798  -0.036083  -0.113731   0.004475   0.021989
     68       0.065579  -0.041833   0.035263  -0.092554   0.009896   0.095686
     69       0.019133   0.021666   0.006381   0.152561  -0.001819   0.019691
     70      -0.047794   0.034329  -0.076815   0.019360   0.000779  -0.023488
     71      -0.094495  -0.069047   0.200122  -0.084537   0.004548   0.014453
     72       0.128827  -0.018815   0.016978  -0.069169  -0.007656   0.004358
     73      -0.019920   0.002286   0.055422  -0.024035   0.006784   0.015134
     74       0.081712   0.017995  -0.205558   0.085760   0.003901  -0.051464
     75      -0.045326   0.034217   0.019443   0.091244   0.005922   0.004834
     76      -0.173504   0.028645   0.023243   0.012477  -0.012888  -0.008145
     77      -0.056497  -0.066774  -0.032378   0.036717   0.005602  -0.004419
     78      -0.094010  -0.035393  -0.064178  -0.119912   0.011914  -0.017093
     79      -0.021082  -0.154474  -0.012287   0.011469   0.021405   0.008931
     80       0.035070   0.459470   0.064531  -0.047761  -0.063008  -0.000064
     81       0.209766  -0.055780   0.003531  -0.002292  -0.008863   0.005899
     82       0.085960  -0.047069   0.034451   0.208843  -0.012138   0.005379
     83       0.034417   0.085913   0.129831   0.013612  -0.034538   0.029302
     84       0.047779   0.026786   0.029619   0.004756  -0.026949   0.002682
     85       0.150180   0.080069   0.057107   0.060264  -0.031173   0.021549
     86       0.030774  -0.330516  -0.058901   0.064622   0.090157   0.001618
     87      -0.032399   0.012246  -0.038734  -0.124656   0.009591  -0.005856
     88      -0.099802   0.059413  -0.031469  -0.071695   0.002863  -0.010232
     89      -0.049218  -0.112659  -0.033152  -0.033081   0.019757  -0.003395
     90      -0.113034  -0.003054   0.010117   0.003443   0.050165  -0.005495
     91       0.085755  -0.006305  -0.001275   0.009009   0.097955  -0.000983
     92       0.037378   0.007084  -0.010358  -0.012496  -0.135658   0.006843
     93      -0.161810  -0.006037   0.004888   0.026353  -0.033814   0.003529
     94      -0.070721  -0.036308  -0.013486   0.005139  -0.063811   0.002710
     95      -0.078885   0.076494   0.036282   0.036695   0.100634  -0.001215
     96       0.054681  -0.009552  -0.015339  -0.019048  -0.010313  -0.004225
     97       0.081625  -0.012553  -0.032582  -0.044779  -0.022567  -0.007479
     98       0.108848   0.053423   0.000212  -0.044130   0.039665  -0.006076
     99       0.061706   0.005366   0.002694   0.004951   0.024936  -0.000103
    100       0.079090   0.038403  -0.004398  -0.044170   0.032652  -0.008124
    101       0.059036  -0.034706  -0.028903  -0.036159  -0.062321  -0.002568
    102       0.114339  -0.021922  -0.019565  -0.013920  -0.039886   0.001289
    103      -0.111542  -0.037605  -0.004353   0.007045  -0.070800   0.004702
    104      -0.010990   0.049106   0.025713   0.016736   0.100105  -0.003467
    105      -0.166387   0.010435   0.016610   0.040832  -0.009536   0.006265
    106      -0.069308  -0.011597   0.009993   0.020633  -0.014640   0.003441
    107      -0.113161   0.008777   0.012610   0.028211   0.017365   0.002685
    108       0.145789   0.045051   0.008592  -0.033234  -0.043215   0.006092
    109       0.063895   0.116565   0.002246  -0.072225  -0.086223  -0.000763
    110      -0.015323  -0.099206  -0.054763  -0.014497   0.121992  -0.026028
    111      -0.237219   0.171060   0.077389   0.077732   0.235868  -0.002527
    112       0.203432   0.245162   0.083426   0.014528   0.415221  -0.018360
    113      -0.116237  -0.386768  -0.126391  -0.030608  -0.604605   0.028696
    114       0.147587   0.055132   0.010319   0.003878   0.129054  -0.005988
    115      -0.057896   0.110757   0.051979   0.035409   0.232917  -0.009171
    116      -0.069592  -0.191145  -0.056350  -0.009411  -0.325870   0.017969
    117       0.023439   0.133314   0.027379   0.012866   0.084777  -0.001155
    118      -0.042037   0.200850   0.070648   0.043303   0.183302  -0.001553
    119      -0.137710  -0.255008  -0.079455  -0.010622  -0.242528   0.005873
    120       0.049545   0.035068  -0.107683  -0.029103   0.018674   0.015289
    121       0.195310  -0.005437  -0.168569  -0.116470   0.021557   0.202853
    122       0.050075  -0.079204   0.460204  -0.099054  -0.045692  -0.468449
    123       0.374263  -0.051413   0.079473   0.043776  -0.039710   0.041796
    124       0.073777   0.011922   0.133772   0.161208  -0.034045   0.025100
    125       0.073357  -0.146158  -0.258363   0.184587   0.054861  -0.051700
                 48         49         50         51         52         53    
      0      -0.040999  -0.014506   0.011593  -0.000198  -0.023119   0.084536
      1      -0.021304   0.013273  -0.032855  -0.048914   0.035124  -0.124066
      2      -0.022146   0.034303  -0.030569   0.023514   0.100450   0.000387
      3      -0.108836  -0.040341   0.015304   0.084609  -0.056596  -0.032422
      4      -0.033022  -0.008096  -0.033633   0.011844  -0.045210  -0.005727
      5      -0.029517  -0.024315   0.028771   0.030957  -0.077329   0.042384
      6      -0.010209   0.004394  -0.011482   0.016073   0.046857  -0.072379
      7       0.047793  -0.051053   0.080382   0.046186  -0.075448   0.052733
      8       0.085522  -0.038965   0.033094  -0.049183  -0.076820  -0.028664
      9       0.244270  -0.001084   0.123164  -0.177833  -0.073092   0.055555
     10      -0.038064   0.104331  -0.094464   0.122310   0.201642   0.167520
     11       0.081187   0.036392   0.037845  -0.005387   0.021987   0.143790
     12      -0.076037  -0.044392   0.034469   0.124739  -0.037831  -0.077326
     13      -0.003251   0.029062  -0.049563  -0.143774  -0.062967   0.147583
     14      -0.383025  -0.114817  -0.059989   0.212406  -0.186510  -0.086975
     15       0.042212   0.027089  -0.035212  -0.060831   0.012614   0.046112
     16       0.038015  -0.010537   0.029362  -0.034895   0.004606   0.004532
     17      -0.003899   0.019009  -0.034554   0.043045   0.065952   0.025886
     18       0.145394  -0.015142   0.013812  -0.052685   0.138041  -0.102549
     19       0.285682  -0.190604   0.202337  -0.077396  -0.352032   0.033648
     20      -0.129152   0.094318  -0.085261   0.068962   0.212938  -0.013254
     21       0.092883  -0.004407   0.071442  -0.151439  -0.059795  -0.107357
     22      -0.282383   0.103761  -0.091418   0.234899   0.223559   0.080924
     23      -0.060438   0.048029  -0.028208  -0.015218   0.050770  -0.026832
     24       0.055320   0.020283  -0.008955  -0.038013   0.027772   0.047547
     25      -0.049080   0.035816  -0.002247  -0.038825   0.051676   0.062525
     26       0.017993  -0.032518  -0.010805  -0.037161   0.016264   0.025617
     27       0.087375   0.017350   0.017785  -0.008410   0.039508  -0.007217
     28      -0.051635   0.014194  -0.011620  -0.031023   0.047697  -0.009780
     29      -0.028445  -0.014046  -0.014388  -0.033923   0.006711  -0.009402
     30       0.036560  -0.025592   0.043078  -0.111547  -0.106828  -0.145169
     31      -0.024807   0.128549  -0.051141   0.118584   0.288995   0.213459
     32       0.004118   0.072853  -0.023978   0.040149   0.160186   0.037425
     33       0.025102   0.034297  -0.010622   0.056138   0.113242   0.221302
     34       0.068932   0.027162  -0.043564  -0.091335   0.069795  -0.159027
     35       0.093426  -0.033912  -0.012155  -0.205813  -0.091633  -0.369244
     36       0.036863  -0.000376   0.053201  -0.026086   0.098137  -0.145834
     37       0.020032  -0.020417  -0.022365  -0.027888   0.015168   0.042684
     38       0.060115   0.069636   0.065180   0.053487  -0.024129  -0.013583
     39       0.023308   0.014281   0.043957   0.025634  -0.018771   0.023802
     40       0.077420  -0.043547  -0.021726   0.079648  -0.111249  -0.004308
     41       0.041537  -0.014875   0.022972   0.005180   0.021261  -0.053022
     42      -0.223737  -0.318222  -0.295489  -0.283054   0.102737   0.199021
     43       0.030343   0.041833   0.046979  -0.048881   0.062152  -0.080930
     44       0.028574   0.039964   0.033197   0.023081  -0.017637   0.010013
     45       0.095691   0.169543   0.231291   0.044544   0.161922  -0.333891
     46      -0.047299   0.059035   0.048817  -0.045236   0.102613  -0.044545
     47      -0.178734  -0.218022  -0.249822  -0.149411  -0.034791   0.294367
     48      -0.061581   0.055753  -0.030741   0.066298  -0.109997   0.077268
     49      -0.020643   0.028984   0.016323   0.026664  -0.000196  -0.067424
     50      -0.019619  -0.092850  -0.074578  -0.034286  -0.007084   0.011141
     51       0.156621   0.077476   0.114148   0.052808  -0.024230   0.136237
     52       0.207215  -0.112205  -0.009655   0.149902  -0.167936  -0.081807
     53      -0.234302   0.124202  -0.005523  -0.139109   0.134806   0.103668
     54      -0.077507  -0.279386  -0.175647  -0.163262   0.032190   0.142270
     55      -0.225248   0.122419  -0.045015  -0.061086   0.005178   0.156070
     56      -0.008570  -0.002619   0.009291  -0.025287   0.041015  -0.022582
     57      -0.038365   0.001007  -0.057184  -0.014988  -0.002551  -0.008063
     58      -0.000747   0.007412   0.033551  -0.044871   0.052968   0.048466
     59      -0.012712   0.084203   0.034429   0.026733  -0.000116   0.007601
     60       0.028643  -0.422229  -0.239135  -0.169443   0.022379   0.060137
     61      -0.052837   0.026780   0.013198  -0.035272   0.074921  -0.080667
     62      -0.023176  -0.057116  -0.057628  -0.014063  -0.018674   0.013207
     63      -0.043759   0.215049   0.068380   0.194980  -0.211098   0.104434
     64      -0.106135   0.030227  -0.045587  -0.061356   0.100719  -0.103873
     65      -0.066299   0.323978   0.117397   0.197681  -0.152340   0.040218
     66       0.044366   0.047914  -0.109375  -0.030128  -0.011232   0.047695
     67       0.057792   0.011702  -0.114646   0.077416  -0.011875  -0.036375
     68      -0.041952   0.069820   0.038628  -0.092855  -0.093669  -0.028832
     69      -0.047145  -0.041333  -0.019965   0.026312  -0.025206  -0.061329
     70      -0.002280  -0.007166   0.088438  -0.002540   0.025351   0.018776
     71      -0.007864  -0.038731   0.012304  -0.014783   0.009138   0.000232
     72      -0.000177   0.014187  -0.021772  -0.006814  -0.019931   0.003795
     73       0.008115   0.014779  -0.002555  -0.012625  -0.022246   0.021104
     74       0.035058  -0.010030  -0.037511   0.043811   0.021772   0.016121
     75      -0.073164  -0.067903   0.029649   0.026747  -0.009100  -0.088765
     76      -0.018684  -0.032113   0.113284   0.005536   0.025292   0.031451
     77      -0.016363  -0.015897   0.041902   0.007154   0.005049  -0.004621
     78       0.032554   0.013127   0.066309  -0.015621   0.023486   0.060971
     79       0.010621   0.037224  -0.120709  -0.005540  -0.026838  -0.028906
     80       0.009091   0.018365  -0.033990  -0.004381  -0.006762  -0.000651
     81      -0.016767  -0.039890   0.093563   0.024602   0.020016  -0.009207
     82      -0.031792  -0.035652   0.008264   0.013375  -0.001085  -0.015158
     83      -0.027371  -0.003069   0.024870  -0.011640  -0.012561  -0.009325
     84      -0.017150  -0.038196   0.136811   0.017623   0.036709   0.026464
     85      -0.011668   0.008750  -0.105141   0.008832  -0.031128  -0.059786
     86      -0.005428  -0.007169  -0.010306   0.008497  -0.001346  -0.019988
     87       0.049852   0.052662  -0.073761  -0.020707  -0.005910   0.032979
     88       0.013294   0.009714   0.004445  -0.008601   0.003632   0.018175
     89       0.010168   0.007885  -0.004193  -0.005029   0.001557   0.010589
     90       0.001381  -0.014252   0.076872   0.003740   0.021969   0.029333
     91      -0.001483   0.005539  -0.039437   0.000689  -0.009769  -0.030351
     92      -0.001817   0.003281  -0.020312   0.000279  -0.007876   0.000815
     93       0.003216   0.016678  -0.062336  -0.004681  -0.012585  -0.017434
     94       0.001339   0.008969  -0.034340  -0.003176  -0.005486  -0.014075
     95      -0.000284   0.008711  -0.045933  -0.002593  -0.014588  -0.007944
     96       0.004130  -0.003158   0.029246  -0.003813   0.005037   0.032585
     97       0.004816  -0.007733   0.051678  -0.005328   0.006959   0.050519
     98      -0.000215  -0.015541   0.076490   0.005944   0.024912  -0.008238
     99       0.000465   0.000058  -0.006012   0.001386  -0.000609  -0.006504
    100      -0.001197  -0.019831   0.098183   0.003418   0.027319   0.031104
    101      -0.000835  -0.012275   0.060597   0.001782   0.014972   0.027628
    102      -0.004880  -0.005049   0.006665   0.002579  -0.000879  -0.003464
    103       0.002306   0.006210  -0.022268  -0.001193  -0.008432   0.002570
    104       0.001532   0.002426  -0.005141  -0.001066   0.002810  -0.009414
    105       0.002639   0.023574  -0.110025  -0.005426  -0.029077  -0.039837
    106      -0.002403   0.003084  -0.024166   0.001588  -0.005474  -0.018966
    107       0.003425   0.015344  -0.060381  -0.005552  -0.016843  -0.007081
    108      -0.008129  -0.012057   0.044012   0.014279   0.024165  -0.066711
    109      -0.004385  -0.028051   0.149340   0.022744   0.065413  -0.087300
    110       0.023428   0.005953   0.012889  -0.035490  -0.032197   0.219452
    111       0.014042   0.042728  -0.157575  -0.017634  -0.042497  -0.013646
    112       0.002375  -0.012472   0.076584  -0.003972   0.016192   0.064312
    113      -0.018768  -0.009256  -0.033690   0.017569  -0.006236  -0.094535
    114      -0.000289  -0.001437   0.011745   0.001355   0.013007  -0.022800
    115       0.009338   0.010407  -0.003146  -0.003833   0.018863  -0.029083
    116      -0.002553   0.003311  -0.055938   0.004174  -0.039389   0.029962
    117       0.004866   0.019099  -0.082095  -0.009397  -0.026631  -0.004128
    118       0.000408   0.007882  -0.049535  -0.005043  -0.029550   0.022531
    119       0.000493   0.010497  -0.033239   0.000243   0.016829  -0.062461
    120      -0.006674   0.157032  -0.151454  -0.133110  -0.140837   0.076374
    121      -0.077270   0.137362   0.058530  -0.119206  -0.166204  -0.084934
    122       0.391428  -0.340983  -0.493455   0.539183   0.406799   0.107948
    123      -0.065560  -0.082027   0.100935   0.056959   0.019576  -0.119713
    124      -0.040926  -0.022311   0.010276  -0.001758  -0.015523  -0.011617
    125       0.017016  -0.050300   0.013459   0.042836   0.040258   0.001782
                 54         55         56         57         58         59    
      0      -0.015097  -0.008972   0.009231  -0.133777  -0.022219  -0.015743
      1       0.022231   0.022761  -0.153209   0.028506   0.003554   0.009729
      2       0.006222   0.006158  -0.051740  -0.003916  -0.002104   0.009156
      3       0.006073  -0.000803   0.075722   0.095224   0.016524   0.009792
      4      -0.002356   0.001323  -0.018923  -0.034065  -0.005153  -0.029971
      5      -0.010036  -0.010393   0.087889   0.015007   0.003888  -0.006021
      6       0.015157   0.014979  -0.109582  -0.020743  -0.004721  -0.013144
      7      -0.011235  -0.015102   0.123529   0.042140   0.007362   0.028854
      8      -0.001137   0.000260  -0.010065  -0.010924  -0.002466  -0.000653
      9      -0.017192  -0.011628   0.021278  -0.052958  -0.008521   0.028460
     10      -0.015057  -0.009291  -0.005190  -0.121178  -0.023412  -0.052120
     11      -0.022685  -0.018393   0.077058  -0.066642  -0.011309  -0.009248
     12       0.015547   0.002588   0.087545   0.241144   0.039287   0.062109
     13      -0.032959  -0.011010  -0.060059  -0.423235  -0.066487  -0.146287
     14       0.011424   0.001408   0.127612   0.086246   0.017355  -0.050900
     15      -0.011201  -0.006058  -0.010318  -0.065942  -0.010916  -0.010759
     16       0.000828   0.002713  -0.019207  -0.058672  -0.009088  -0.013181
     17      -0.000809   0.000732  -0.015102  -0.033158  -0.005027  -0.007101
     18       0.023943   0.030417  -0.279442  -0.203003  -0.038742  -0.050512
     19      -0.027322  -0.029742   0.236329   0.081787   0.015511   0.053692
     20       0.016277   0.016940  -0.144990  -0.078681  -0.015768  -0.031272
     21       0.011714   0.017291  -0.175350  -0.125437  -0.019932  -0.035643
     22       0.005902  -0.001956   0.054519   0.053148   0.008769   0.007660
     23       0.007092   0.008874  -0.080808  -0.052404  -0.008820  -0.023447
     24      -0.007235  -0.002346   0.000587   0.098143   0.013073  -0.001164
     25      -0.010006  -0.006618   0.004423  -0.076086  -0.010067  -0.003537
     26      -0.004293  -0.003947   0.012003  -0.008290  -0.000614  -0.000084
     27       0.002498   0.001028  -0.008570   0.063364   0.009613   0.026194
     28       0.004240   0.000788   0.011372   0.035490   0.006656   0.020807
     29       0.001478   0.002885  -0.020045   0.004751   0.001019   0.006983
     30       0.016601   0.015139  -0.116851  -0.001922  -0.002716   0.017016
     31      -0.015710  -0.010417  -0.013357  -0.092725  -0.020448   0.012050
     32       0.004409   0.003909  -0.056044  -0.006093  -0.005201   0.020886
     33      -0.030292  -0.018820   0.017924  -0.198949  -0.035503  -0.015992
     34       0.028031   0.032897  -0.256716   0.012088  -0.001041   0.013136
     35       0.052192   0.052072  -0.340812   0.092682   0.013845   0.021577
     36       0.027169  -0.001171   0.119507   0.024122   0.007723   0.014879
     37      -0.007861  -0.009270   0.057353   0.069409   0.009082   0.009140
     38       0.001320  -0.002773   0.022691  -0.012674  -0.001945  -0.002954
     39      -0.005577  -0.007379   0.026000  -0.078901  -0.014251  -0.043889
     40      -0.000584   0.015687  -0.114513  -0.046138  -0.004962  -0.004525
     41       0.010133   0.000009   0.038389  -0.007484  -0.000719  -0.013720
     42      -0.034572  -0.015005   0.038894   0.162331   0.023480   0.040611
     43       0.013386  -0.005122   0.112758   0.145206   0.027079   0.066265
     44      -0.002640  -0.002721   0.013971   0.008160   0.001109   0.004134
     45       0.060890  -0.005936   0.276829  -0.005772   0.007300   0.011635
     46       0.008956  -0.020694   0.221984   0.070417   0.011755   0.000790
     47      -0.051943  -0.009763  -0.092791   0.059865   0.003051  -0.009825
     48      -0.012979   0.012121  -0.138254   0.037818   0.005657   0.037639
     49       0.013453   0.002268   0.051102   0.029543   0.005217  -0.002716
     50      -0.001966   0.004645  -0.026274   0.034752   0.006893   0.021922
     51      -0.029367  -0.031412   0.097802  -0.135964  -0.031455  -0.150245
     52       0.013558   0.029388  -0.163682  -0.085180  -0.008552  -0.017042
     53      -0.018411  -0.026667   0.134192   0.080614   0.008690   0.020082
     54      -0.027200  -0.013723   0.013187  -0.037736  -0.010168  -0.053739
     55      -0.029543  -0.011731  -0.011248   0.061541   0.007885   0.039131
     56       0.004669  -0.004661   0.054140   0.011646   0.001562  -0.007502
     57       0.002484   0.006698  -0.000803   0.123780   0.020908   0.008379
     58      -0.009130  -0.016993   0.053766  -0.072288  -0.016852  -0.034064
     59      -0.001152  -0.001897   0.005624   0.000661  -0.001694  -0.011592
     60      -0.011553   0.006876  -0.079579   0.028303   0.005717   0.025900
     61       0.013840  -0.007710   0.161929   0.057507   0.012461  -0.004372
     62      -0.002013   0.005293  -0.033718   0.034787   0.006561   0.021204
     63      -0.018446   0.018240  -0.240669  -0.058585  -0.010778   0.031410
     64       0.023323  -0.003894   0.197351   0.254137   0.041995   0.011365
     65      -0.004713   0.013410  -0.127435   0.031353   0.003885   0.022672
     66      -0.013058  -0.008127   0.030948  -0.001078  -0.000483   0.001283
     67       0.004111   0.004977   0.003792   0.080113   0.013778   0.013237
     68      -0.002145  -0.000184   0.006381   0.024739   0.003977   0.004176
     69       0.011655   0.009893  -0.004514   0.053707   0.011780  -0.007448
     70      -0.007207  -0.011422   0.017032  -0.078890  -0.013428  -0.015940
     71       0.000240  -0.002149   0.007197  -0.016319  -0.002211  -0.004310
     72      -0.001461   0.000710   0.037208  -0.035368   0.000497   0.021902
     73      -0.007352  -0.006055   0.000468   0.047378   0.003187  -0.003520
     74      -0.003072  -0.002856   0.002642   0.009753   0.000527   0.002295
     75       0.010470  -0.005386   0.024603  -0.199870  -0.029312  -0.038833
     76       0.005099   0.011497  -0.060030   0.037092   0.006385   0.017055
     77       0.003200   0.002758  -0.015102  -0.016883  -0.001920   0.000953
     78      -0.008012   0.001146  -0.037394   0.053962   0.013632   0.024578
     79      -0.004931  -0.007052   0.044865  -0.023475  -0.003238   0.008173
     80      -0.002539   0.003417   0.011482  -0.002076   0.001822   0.001003
     81       0.013236   0.005948   0.012720  -0.027519  -0.005741  -0.022232
     82       0.005177   0.013339  -0.048989   0.035569   0.011669   0.020177
     83       0.008681   0.011940  -0.008105   0.004871   0.004162   0.004592
     84       0.005738   0.012353  -0.034900   0.023192   0.007606   0.046538
     85       0.008959   0.004108   0.048467  -0.044624  -0.005565  -0.053298
     86      -0.009743  -0.026101   0.002172  -0.004115  -0.008729  -0.008214
     87      -0.007164  -0.006363   0.014105   0.038974  -0.001998   0.008866
     88      -0.003949  -0.001225  -0.003276   0.001145  -0.001526  -0.000267
     89      -0.002314  -0.002580  -0.000472   0.005120  -0.000955   0.001096
     90      -0.003141  -0.014970  -0.046544   0.077864  -0.002027  -0.009066
     91      -0.024294  -0.048581   0.020372  -0.049725  -0.008794   0.001336
     92       0.029943   0.062040   0.027594  -0.029040   0.009406  -0.008862
     93      -0.022065   0.020099   0.014562  -0.030495   0.035844   0.060919
     94      -0.035165   0.037215   0.018209  -0.072140   0.061503   0.214060
     95       0.043721  -0.060805   0.004893  -0.009593  -0.086222   0.196755
     96       0.043648   0.042387  -0.010238   0.052781  -0.006492  -0.177630
     97       0.078329   0.070345  -0.002967   0.037241  -0.015376  -0.149832
     98      -0.095332  -0.088784  -0.049195   0.062071   0.013904  -0.178548
     99      -0.011620  -0.003219   0.001042  -0.000592   0.002673   0.040456
    100      -0.007340   0.009662  -0.029622   0.018914   0.007331   0.162591
    101       0.027559   0.003331  -0.018063   0.012748  -0.000715   0.134937
    102       0.021190  -0.046140   0.002798  -0.051314   0.011572   0.136823
    103       0.046045  -0.065322  -0.014233   0.027133   0.029330  -0.125995
    104      -0.067516   0.104543   0.019508   0.012898  -0.032025  -0.031618
    105      -0.019527  -0.000064   0.032837  -0.013119  -0.045199  -0.119539
    106      -0.030439   0.008638   0.009356   0.019107  -0.071397  -0.058986
    107       0.033736  -0.027991   0.011627  -0.049431   0.091768  -0.103733
    108      -0.198720  -0.167519  -0.047225   0.025813   0.017223  -0.019006
    109      -0.410469  -0.345619  -0.151668   0.170113   0.035534  -0.404668
    110       0.532592   0.451707   0.081799   0.042241  -0.050529  -0.318646
    111       0.069499  -0.029370   0.033014  -0.104538   0.201829  -0.069938
    112       0.123648  -0.041472  -0.017170  -0.152290   0.379915  -0.237640
    113      -0.191049   0.043509   0.028025   0.177081  -0.544437  -0.105208
    114      -0.150106   0.187977   0.042074  -0.019221  -0.071862   0.119495
    115      -0.262176   0.362172   0.054847   0.080657  -0.123378  -0.147203
    116       0.363478  -0.510410  -0.080690  -0.025704   0.199406  -0.103381
    117       0.096491  -0.095592   0.020737  -0.037299  -0.135173   0.374759
    118       0.230281  -0.227045  -0.018212   0.091654  -0.363027   0.233379
    119      -0.325420   0.306195   0.058072  -0.239280   0.501097   0.165610
    120      -0.034604  -0.026127   0.091937   0.178393   0.023287   0.020571
    121       0.003111   0.006198  -0.002406   0.060826   0.010664   0.010116
    122       0.006928   0.001374   0.009016   0.044742   0.007632   0.008539
    123       0.009944  -0.007568   0.050729  -0.145796  -0.017473  -0.097698
    124       0.013579   0.023025  -0.043132   0.040387   0.012523   0.021029
    125      -0.014362  -0.014513  -0.036831   0.008260   0.001567   0.008668
                 60         61         62         63         64         65    
      0       0.106473  -0.008859   0.068407   0.012453  -0.041213   0.037688
      1       0.015722   0.092105  -0.059095  -0.020506   0.000569   0.057464
      2       0.047349   0.045849  -0.046707  -0.019529  -0.097294  -0.072355
      3      -0.063163   0.022920  -0.086708  -0.028447  -0.023555  -0.037445
      4      -0.130380  -0.050209   0.084615   0.046854   0.005966  -0.077310
      5      -0.041610  -0.034677   0.018706   0.007141   0.091972   0.094596
      6       0.000259   0.022807   0.105398   0.050910   0.025121   0.001257
      7       0.148946   0.033887  -0.002800  -0.012152  -0.003410   0.052597
      8       0.013790   0.006350   0.036386   0.019008  -0.077669  -0.123635
      9       0.228415   0.042410   0.002515  -0.025539   0.111730   0.305939
     10      -0.076247  -0.115585   0.200540   0.089469   0.044323  -0.135820
     11       0.072355  -0.055353   0.094332   0.025923   0.148359   0.174557
     12       0.028865   0.166127  -0.203240  -0.067236  -0.035816  -0.033046
     13      -0.246279  -0.379575   0.393729   0.142681   0.095307   0.025714
     14      -0.373806  -0.103697  -0.022877   0.016966  -0.095159  -0.246304
     15      -0.038149  -0.069428  -0.024089  -0.018865  -0.003623   0.001493
     16      -0.029452  -0.044730  -0.019717  -0.009731  -0.019005  -0.021603
     17      -0.003503  -0.027812   0.008245  -0.001123   0.049140   0.074514
     18       0.093739   0.013557   0.279158   0.121822  -0.210010  -0.351518
     19       0.190041   0.047962  -0.045025  -0.027921  -0.141497  -0.125164
     20      -0.012102  -0.009533   0.106948   0.046080   0.027794   0.004465
     21       0.050180  -0.004799   0.302579   0.120493   0.209898   0.293212
     22       0.027801   0.007373  -0.046277  -0.027904   0.166496   0.264093
     23      -0.031210  -0.022146   0.104710   0.042998   0.111850   0.141002
     24      -0.109023   0.019477  -0.056006  -0.010781   0.022874  -0.013475
     25      -0.061393  -0.085337  -0.115781  -0.056886   0.000985   0.023862
     26      -0.034821  -0.020831  -0.046702  -0.018557   0.007422  -0.017364
     27       0.009968   0.036648  -0.052274  -0.011402   0.033156  -0.027515
     28       0.052689  -0.057976  -0.068023  -0.040673   0.013673  -0.005153
     29       0.022282  -0.017450  -0.036024  -0.022108  -0.006568   0.053298
     30       0.130216   0.089499  -0.030209  -0.024435   0.197296   0.263758
     31       0.217449   0.064224  -0.038597  -0.031221  -0.125549  -0.105707
     32       0.143129   0.079853  -0.073808  -0.038110  -0.046901  -0.029309
     33       0.158962   0.033008   0.080435   0.023542  -0.217686  -0.144201
     34       0.032794   0.191218  -0.061694  -0.009483  -0.078256   0.007877
     35      -0.011455   0.229675  -0.085511  -0.014881   0.053103   0.169529
     36       0.030288  -0.139770  -0.006971  -0.017299   0.003207  -0.015204
     37       0.044802   0.038909   0.096482   0.048754  -0.041185  -0.022312
     38       0.001414   0.032698   0.034215   0.020389   0.097603  -0.060362
     39      -0.102278   0.097514   0.022766   0.022143  -0.003958   0.038498
     40      -0.049209  -0.064611  -0.061006  -0.032838   0.016370   0.002645
     41      -0.039362  -0.036175   0.002377  -0.002249  -0.122240   0.078018
     42       0.103979  -0.005334   0.068964   0.028479  -0.191703   0.092774
     43       0.176396  -0.063087   0.067251   0.022455   0.252929  -0.135446
     44       0.019663   0.033347   0.030460   0.017502   0.099401  -0.052623
     45       0.062829  -0.266107   0.036873  -0.015726   0.074695  -0.079293
     46       0.091086  -0.087223   0.177272   0.062709  -0.136707  -0.013549
     47      -0.009480   0.142733   0.054218   0.038904  -0.224618   0.110425
     48       0.123558  -0.012682   0.004204  -0.002184  -0.002165  -0.023935
     49       0.026580   0.029685   0.098151   0.053078  -0.048361   0.043195
     50       0.052178  -0.001238   0.021010   0.012772   0.108952  -0.074253
     51      -0.507290   0.509290   0.088766   0.121463  -0.045338   0.092448
     52      -0.106166  -0.175956  -0.106532  -0.063571  -0.129369   0.097391
     53       0.104316   0.173243   0.102685   0.062003   0.185195  -0.123906
     54      -0.152938   0.210954   0.042370   0.048184  -0.079609   0.155097
     55       0.134835   0.144216   0.075391   0.047880   0.297910  -0.202225
     56      -0.013841   0.003142   0.024509   0.011756  -0.079398   0.050047
     57      -0.069975  -0.012962   0.017251   0.017212   0.007311   0.000274
     58      -0.061920   0.089491  -0.074415  -0.038223   0.034577  -0.029318
     59      -0.035748   0.006981  -0.021882  -0.012790  -0.062842   0.035987
     60       0.026797  -0.058793  -0.087864  -0.048672   0.172680  -0.114808
     61      -0.011765   0.182894   0.228565   0.149721   0.296869  -0.169348
     62       0.057316  -0.003683   0.020483   0.011353   0.081520  -0.059187
     63       0.165378  -0.049905  -0.089368  -0.066094   0.003263  -0.047420
     64      -0.034378   0.095791   0.312236   0.194411  -0.316243   0.242044
     65       0.096389  -0.030672   0.014012   0.002364  -0.174151   0.085825
     66       0.024065  -0.041633  -0.010283  -0.017951  -0.014630   0.009041
     67      -0.012685   0.034139   0.049432   0.031351   0.019122   0.009968
     68      -0.006802   0.005562   0.009134   0.005506  -0.009458  -0.014257
     69      -0.016417  -0.040127   0.031985   0.016610  -0.013963   0.014859
     70       0.011031   0.062676  -0.037403  -0.024151   0.005243  -0.021641
     71       0.003047   0.016714  -0.007192  -0.004729   0.015492  -0.011244
     72       0.023404  -0.021186  -0.023171   0.000059  -0.004874   0.004979
     73       0.004530   0.021481  -0.010427  -0.013590  -0.000890  -0.007176
     74       0.004829   0.001252  -0.006606  -0.003609  -0.001523  -0.001290
     75       0.058111   0.037566  -0.007243  -0.048334   0.009653  -0.009653
     76      -0.004875  -0.038820   0.008293   0.033022  -0.002736   0.008132
     77       0.006418  -0.006812   0.002247   0.003327  -0.002604   0.002609
     78      -0.006550  -0.040198  -0.009008   0.047226  -0.005795   0.011523
     79      -0.004941   0.037788   0.005046  -0.041074   0.009641  -0.011464
     80      -0.001868   0.007915  -0.000337  -0.007673   0.001435  -0.001439
     81       0.005449   0.058516  -0.023790   0.006475   0.003400  -0.008665
     82      -0.001998  -0.077389   0.028523   0.027394  -0.009598   0.018819
     83      -0.000421  -0.013711   0.003690   0.009132  -0.002285   0.004156
     84      -0.017661   0.006377   0.001039   0.023447   0.011426  -0.008523
     85       0.009949   0.023909   0.002347  -0.034189   0.003341  -0.004003
     86       0.000113   0.005323   0.004085  -0.008968   0.002342  -0.001523
     87      -0.012939   0.007669  -0.002551  -0.002947  -0.001948  -0.003182
     88       0.002168  -0.002839  -0.002536   0.000581  -0.002734   0.000587
     89      -0.000897  -0.000194  -0.001123   0.000209  -0.000914  -0.000410
     90      -0.022139  -0.001523   0.024511  -0.002952   0.002541  -0.002133
     91       0.016563   0.004797  -0.021120   0.001855   0.001741  -0.002661
     92       0.004325   0.014497  -0.010657   0.000397   0.003610  -0.005038
     93      -0.008146   0.001457   0.033499  -0.066467  -0.001106   0.000704
     94      -0.014076   0.005758  -0.027920   0.081296  -0.006322   0.006005
     95      -0.013975  -0.002423  -0.005856   0.029832  -0.003922   0.004430
     96       0.009411  -0.010538   0.028942  -0.061592   0.001660  -0.000060
     97       0.016065  -0.010875  -0.024716   0.044092   0.001245   0.000264
     98       0.012939  -0.017195   0.001083   0.001030  -0.000338   0.001697
     99      -0.009330   0.003648   0.035727  -0.071960  -0.002461   0.000737
    100      -0.032372   0.004254   0.043583  -0.050875  -0.001573   0.001270
    101      -0.026627   0.004427   0.044031  -0.063073  -0.001631   0.001205
    102       0.001232  -0.000129  -0.073349   0.158266   0.000124   0.000147
    103       0.000475   0.003341   0.069798  -0.162306   0.000887  -0.003354
    104       0.001486   0.003069   0.017867  -0.049128   0.000943  -0.002239
    105       0.031260  -0.005940  -0.051298   0.075613  -0.002192   0.002780
    106       0.015071  -0.007310  -0.044212   0.083568   0.002309   0.000189
    107       0.022899  -0.004445  -0.050895   0.089003   0.000403   0.000556
    108      -0.008834   0.003171   0.078746  -0.163058  -0.002811   0.002399
    109       0.032893  -0.068994  -0.060454   0.161714   0.000659   0.004193
    110       0.033981  -0.008175  -0.054198   0.091276   0.007152  -0.004231
    111       0.013373   0.006353   0.039875  -0.112991  -0.013816   0.007592
    112       0.054024  -0.015108  -0.240480   0.488151   0.019696  -0.013511
    113       0.040667  -0.023188  -0.141226   0.273537   0.012713  -0.001178
    114      -0.004834   0.005686  -0.012860   0.009420   0.000555  -0.003513
    115      -0.005511   0.009063   0.138397  -0.331118   0.002319  -0.007143
    116      -0.008222   0.011425   0.104903  -0.247193  -0.000216  -0.007506
    117      -0.038252  -0.002596   0.142132  -0.321797   0.000397  -0.002801
    118      -0.010611  -0.014436  -0.049275   0.130410  -0.003674   0.009494
    119      -0.016914   0.026173   0.010896  -0.010348  -0.008560   0.000150
    120       0.077956  -0.021918  -0.025348  -0.062974  -0.062774  -0.014358
    121      -0.032816   0.029540   0.044255   0.032415   0.003726  -0.015098
    122       0.044196   0.015806   0.039619   0.017695   0.051635   0.072621
    123       0.014563   0.147532  -0.010339  -0.021883   0.009821  -0.010894
    124      -0.001833  -0.083075   0.024142   0.034524  -0.011251   0.018978
    125       0.001520  -0.020250   0.017786  -0.005016  -0.000762   0.008222
                 66         67         68         69         70         71    
      0       0.057598   0.051200  -0.003965   0.049201  -0.050184   0.053138
      1       0.032794   0.019878   0.000355   0.040694  -0.031687   0.050270
      2       0.059427   0.045575  -0.000392   0.056603  -0.053399  -0.024211
      3       0.015159   0.006401  -0.001761   0.026022  -0.006610   0.009278
      4      -0.057230  -0.047571   0.005502  -0.019261   0.048807  -0.029960
      5      -0.044559  -0.036345   0.001326  -0.006669   0.018719   0.019314
      6      -0.047216  -0.043773   0.006165  -0.040407  -0.006710  -0.018250
      7       0.026346   0.026969  -0.003100  -0.016636  -0.069928  -0.014160
      8       0.010157   0.009392  -0.000025  -0.044921   0.021926  -0.000739
      9       0.016818   0.034096   0.001421   0.118336  -0.135822  -0.030799
     10      -0.093434  -0.084819  -0.007157  -0.284805   0.218497   0.165304
     11      -0.058842  -0.043774  -0.003045  -0.089419   0.049503   0.088380
     12       0.037431   0.015540   0.008089   0.035350   0.147554   0.036557
     13      -0.115513  -0.070881  -0.018166  -0.050920  -0.318933  -0.075236
     14      -0.032177  -0.033495  -0.003623   0.032124  -0.061186  -0.035360
     15       0.029081   0.029412   0.001086   0.065518   0.085289   0.043211
     16       0.035541   0.019634  -0.007490   0.026892   0.026140   0.034352
     17      -0.005688  -0.002727   0.000136   0.038075   0.004481  -0.008178
     18      -0.007257  -0.002078  -0.023568  -0.326603  -0.319182   0.110734
     19       0.074204   0.079661  -0.000505  -0.010829   0.016532  -0.034290
     20      -0.033980  -0.037027  -0.006905  -0.093947  -0.113837   0.037886
     21      -0.202260  -0.113818   0.020019   0.085858  -0.226130  -0.324245
     22      -0.016487  -0.019981  -0.001587   0.049522  -0.025532   0.046420
     23      -0.087738  -0.053092   0.006974   0.049487  -0.056758  -0.110745
     24      -0.059518  -0.069695  -0.000969   0.023121  -0.028668   0.024041
     25       0.039418   0.049279   0.003683   0.010469   0.013126  -0.023620
     26       0.015444   0.010993  -0.000087   0.007873   0.000099  -0.005420
     27      -0.054224  -0.049382   0.006749  -0.084618   0.108832  -0.099288
     28       0.030320   0.031721  -0.009455  -0.148502  -0.037612  -0.085729
     29       0.001044   0.008115  -0.002682  -0.066515  -0.014971  -0.049217
     30       0.014774   0.016039  -0.016912  -0.215272   0.105933   0.219845
     31       0.149179   0.114080  -0.018990  -0.071282   0.006592   0.123857
     32       0.095273   0.073334  -0.014536  -0.085687   0.017880   0.094713
     33       0.082936   0.078341   0.010972   0.242607   0.025997  -0.071334
     34       0.034079   0.022394   0.018480   0.247010   0.061184   0.006933
     35       0.003520  -0.007112   0.017817   0.204625   0.053906   0.095654
     36      -0.040771  -0.013448  -0.001356   0.033232  -0.004427  -0.011068
     37      -0.107110  -0.090934   0.009800   0.110438   0.048266   0.005939
     38       0.044495   0.024866  -0.003381   0.004573   0.021250   0.086992
     39       0.113325   0.077718  -0.004612  -0.044756  -0.027467   0.013762
     40       0.023561   0.032910  -0.003480   0.006749  -0.037046   0.016243
     41      -0.047502  -0.028561   0.004863  -0.003291   0.001497  -0.031917
     42      -0.258599  -0.202606   0.026185  -0.003601   0.127617   0.029418
     43      -0.076021  -0.088244   0.001211  -0.204731   0.219757   0.364528
     44       0.030906   0.010417  -0.002727  -0.044114   0.043748   0.112346
     45       0.009546   0.027858  -0.010602   0.168684  -0.142847   0.114207
     46      -0.122560  -0.107562   0.007307   0.355207  -0.205320   0.079031
     47      -0.105559  -0.102472   0.014743   0.066843  -0.030394  -0.095913
     48      -0.068494  -0.059432   0.006192   0.009868   0.038714  -0.030248
     49       0.059635   0.044360   0.001598  -0.044910   0.031169   0.007779
     50       0.052027   0.034338  -0.002907   0.035355  -0.006944  -0.029630
     51       0.251103   0.196459   0.009676   0.043760   0.086421  -0.305855
     52      -0.035722   0.001697   0.001380   0.008586  -0.056979   0.012106
     53       0.072968   0.029593  -0.004418  -0.005809   0.040628   0.000105
     54       0.147997   0.106069   0.002127  -0.357020   0.129318   0.384296
     55       0.121505   0.066531  -0.006132   0.051221   0.007856   0.049929
     56      -0.030402  -0.022145   0.004523  -0.011367   0.016636  -0.008251
     57       0.012006   0.033273  -0.002781   0.018353  -0.077940   0.018728
     58      -0.065947  -0.076860  -0.006884   0.038019  -0.024764   0.016058
     59      -0.063028  -0.042913   0.000399  -0.013320   0.001466   0.039025
     60      -0.021185  -0.023711  -0.009424   0.013454  -0.015187   0.135333
     61       0.447093   0.291168  -0.007715   0.178701  -0.146833  -0.397027
     62       0.033036   0.019377  -0.001691   0.028609  -0.000273  -0.025376
     63      -0.136191  -0.144151  -0.001512   0.050210  -0.045270  -0.034575
     64       0.061233   0.113850   0.034506  -0.197708   0.271456   0.048948
     65      -0.126393  -0.109881   0.012760  -0.029346   0.049203   0.001003
     66       0.049581   0.041187  -0.017922  -0.003490   0.026858  -0.020845
     67      -0.016876  -0.017453  -0.001351   0.024725   0.059612  -0.016943
     68       0.005673   0.002075  -0.003425   0.002916   0.025582  -0.003348
     69       0.093647   0.000576   0.002517  -0.003570  -0.137199   0.064244
     70      -0.046799  -0.107042   0.007616  -0.025545  -0.063780   0.026980
     71       0.008101  -0.028101   0.002646  -0.002299  -0.045166   0.012802
     72       0.054090   0.033769   0.025355   0.012942   0.063042   0.020447
     73      -0.064410  -0.017070  -0.001669  -0.024724  -0.090816   0.013914
     74      -0.012318   0.001690   0.003870  -0.005198  -0.015737   0.007163
     75      -0.099380   0.052329  -0.011432   0.004687   0.101433  -0.041687
     76       0.067701  -0.015572   0.001743   0.011904   0.047059  -0.017578
     77       0.004334   0.003158  -0.000979   0.002919   0.030032  -0.010243
     78       0.177108  -0.130733   0.014194   0.003458   0.012772  -0.003826
     79      -0.188493   0.151301   0.000422  -0.003829  -0.027635   0.007495
     80      -0.039591   0.030762  -0.000029  -0.001630  -0.009065   0.002734
     81      -0.030365  -0.091904  -0.018645  -0.019219  -0.036879  -0.010072
     82       0.095233   0.057391  -0.010274   0.027297   0.089460  -0.013810
     83       0.025371   0.002210  -0.004532   0.005777   0.022105  -0.005672
     84      -0.097806   0.087156   0.052027   0.000743  -0.006252   0.011504
     85       0.033428  -0.064125  -0.008217  -0.004807  -0.043205   0.020466
     86       0.000396  -0.007309  -0.002250  -0.000756  -0.013116   0.007370
     87      -0.052751   0.036901  -0.006579  -0.004348  -0.019021   0.006439
     88       0.004577  -0.005130  -0.002141  -0.000601   0.009739  -0.004315
     89      -0.004167   0.002266  -0.002125  -0.000648   0.001573  -0.001141
     90      -0.108658   0.100056   0.009099  -0.003561  -0.058547   0.016631
     91       0.067212  -0.075824   0.063544  -0.004969   0.012137  -0.000213
     92      -0.006979  -0.018334   0.044204  -0.006314  -0.018233   0.007276
     93       0.021079  -0.004127   0.049163  -0.000394   0.004496  -0.009079
     94       0.000533  -0.015773  -0.085424   0.001328  -0.002511   0.002564
     95       0.019767  -0.014862  -0.025396   0.001232   0.003827  -0.002777
     96      -0.006594   0.030039  -0.074167   0.009587   0.030675  -0.013037
     97      -0.001217   0.006446  -0.004970   0.002103   0.009958  -0.000757
     98      -0.001457   0.019638  -0.036932   0.005405   0.017217  -0.004974
     99       0.024812  -0.018053  -0.018418   0.001449   0.005241  -0.002110
    100      -0.039496   0.041191  -0.049752   0.003173  -0.003309  -0.001197
    101      -0.018542   0.022860  -0.041316   0.003104   0.000503  -0.001861
    102      -0.024398   0.005819   0.049850  -0.005878  -0.022770   0.016907
    103       0.031704  -0.015446   0.046830  -0.001154   0.005700   0.001977
    104       0.012904  -0.010526   0.050428  -0.003091  -0.004600   0.007531
    105       0.044590  -0.049614  -0.061445   0.002070   0.017184  -0.001042
    106      -0.010033   0.008872   0.019104   0.000255   0.003063  -0.009338
    107       0.005530  -0.010041  -0.013910   0.001159   0.008735  -0.006489
    108       0.053537  -0.048255  -0.139019   0.007701   0.041637  -0.033339
    109      -0.092629   0.175691   0.068059   0.011918   0.001971   0.033177
    110      -0.050662   0.054664   0.021156   0.002695   0.002175   0.007814
    111       0.110537  -0.104221  -0.299967   0.014058   0.061407   0.024339
    112      -0.159231   0.122757   0.432851  -0.021914  -0.079286  -0.054884
    113      -0.042641   0.030221   0.217464  -0.010459  -0.030794  -0.031826
    114       0.024607  -0.031304   0.179981  -0.013855  -0.031710   0.045517
    115       0.084610  -0.053125   0.189409  -0.009101  -0.001446   0.031142
    116       0.060935  -0.044172   0.205774  -0.013438  -0.023745   0.042758
    117       0.249920  -0.162797   0.638288  -0.022352   0.046447  -0.092754
    118      -0.005271   0.002112  -0.179180   0.008525   0.003112   0.014624
    119       0.017961  -0.036911   0.055883  -0.007210  -0.005731  -0.013382
    120       0.012562   0.103600  -0.083102  -0.216731  -0.406985  -0.211425
    121      -0.009129  -0.018697   0.004337   0.045987   0.120536   0.012138
    122      -0.013348  -0.007780  -0.008400  -0.008326  -0.045614  -0.051043
    123       0.251204  -0.627947  -0.198572  -0.057142  -0.142464  -0.105842
    124       0.077441   0.092120   0.005965   0.029102   0.097485  -0.006097
    125       0.052820  -0.019660  -0.025122   0.008127   0.024716  -0.014879
                 72         73         74         75         76         77    
      0      -0.023035  -0.006087  -0.017446  -0.038065  -0.036714  -0.001211
      1      -0.024332  -0.013442   0.042856   0.038932   0.025044   0.012274
      2       0.084474  -0.010274   0.021561   0.020801   0.011907  -0.014676
      3       0.014078  -0.012760   0.043894   0.035879   0.022830   0.000718
      4       0.013639   0.013778  -0.055056  -0.057351  -0.033590   0.003244
      5      -0.044761   0.000860   0.011337   0.008896   0.009679   0.047138
      6      -0.011763   0.017811  -0.057494  -0.039307  -0.043209   0.013686
      7       0.015066  -0.006275   0.027021   0.034841   0.010555   0.033892
      8      -0.021532   0.009590  -0.038245  -0.032553  -0.023225  -0.016942
      9       0.098243  -0.021965   0.078522   0.073469   0.027893   0.074146
     10      -0.393607   0.052219  -0.170964  -0.161926  -0.087888  -0.008242
     11      -0.189870   0.013846  -0.023394  -0.021976  -0.010993   0.069270
     12      -0.074714   0.018545  -0.108237  -0.138125  -0.073682   0.021980
     13       0.183868  -0.056479   0.295893   0.342779   0.186223  -0.027387
     14       0.102941  -0.029562   0.113137   0.107217   0.061980   0.009982
     15       0.001204  -0.001866   0.007244   0.013690   0.037192  -0.129282
     16      -0.014325  -0.019001   0.069758   0.038887   0.027609  -0.057505
     17       0.031996  -0.003987   0.011647   0.004311   0.003926  -0.042508
     18      -0.176433  -0.050384   0.264203   0.302948   0.190957   0.430419
     19       0.032886   0.012098  -0.064139  -0.049674  -0.038219  -0.081272
     20      -0.063262  -0.019142   0.102640   0.104836   0.061575   0.163646
     21       0.396575   0.031609  -0.149507  -0.130038  -0.130287   0.010802
     22      -0.030974  -0.015697   0.075857   0.078293   0.047006   0.029519
     23       0.140503   0.010653  -0.053497  -0.052834  -0.045526  -0.017577
     24       0.016813  -0.009047   0.014298  -0.022201   0.128106   0.040173
     25      -0.014721   0.010054  -0.038325  -0.065158  -0.097791   0.064860
     26      -0.009492   0.002636  -0.007927  -0.022682  -0.010991   0.025088
     27       0.019718   0.024710  -0.021077   0.017040   0.021690   0.000585
     28       0.043091   0.018387  -0.042001  -0.004493   0.036246  -0.033852
     29      -0.042362   0.017839  -0.024330   0.003539   0.023459  -0.011476
     30      -0.365433  -0.010652   0.045633   0.018791  -0.027628  -0.096649
     31      -0.085023  -0.024243   0.020846  -0.024176  -0.029540  -0.152717
     32      -0.092905  -0.020270   0.044971   0.019749  -0.002838  -0.119802
     33       0.149126   0.016927  -0.162427  -0.221955  -0.182736   0.066137
     34       0.056675   0.004054  -0.085720  -0.137165  -0.111592   0.106911
     35      -0.053627  -0.005717  -0.030659  -0.077924  -0.063369   0.105844
     36      -0.017233  -0.003075   0.031668   0.028213  -0.078035  -0.005524
     37      -0.028786   0.000866   0.016278   0.011506   0.002075   0.007006
     38       0.051850  -0.025779   0.016947  -0.026938  -0.014676   0.020980
     39       0.011009   0.001990  -0.039337  -0.049589   0.075698   0.002238
     40      -0.003516  -0.008052   0.012509   0.001775  -0.042552   0.008030
     41      -0.029033   0.014040  -0.017205   0.007864   0.041401  -0.034177
     42      -0.018181   0.008860   0.001963   0.063276   0.034170  -0.093835
     43       0.256611  -0.097394   0.110873   0.053876  -0.060296  -0.166700
     44       0.077245  -0.030666   0.018556  -0.017955   0.000935  -0.009503
     45      -0.028812  -0.024560  -0.025679  -0.107029   0.022949   0.119244
     46      -0.130589   0.012227  -0.131695  -0.197168   0.279258   0.194201
     47      -0.083849   0.042536  -0.069975  -0.027054   0.163336   0.012704
     48      -0.005230   0.007265   0.018338   0.045816  -0.036752  -0.026607
     49       0.024522   0.003345  -0.019589  -0.025800   0.078394  -0.004309
     50      -0.016697   0.005033   0.015359   0.020232  -0.027577  -0.002465
     51      -0.139435   0.045813   0.206270   0.336602  -0.412293  -0.066368
     52      -0.026442  -0.000728  -0.010058  -0.010484  -0.002362  -0.006612
     53       0.027619  -0.004543   0.017844   0.012675  -0.016488   0.002307
     54       0.323387  -0.095699  -0.059800  -0.212974   0.156051   0.093964
     55       0.040527  -0.021174   0.029728  -0.007059  -0.067405   0.069194
     56      -0.006518   0.007241  -0.015146  -0.001669   0.043474  -0.022170
     57      -0.017714  -0.015632   0.022088   0.004651  -0.051496   0.015261
     58      -0.014490  -0.006743   0.005951  -0.002844  -0.021262   0.043611
     59       0.017900  -0.015353   0.015989  -0.000256  -0.037870   0.025964
     60       0.068621  -0.051019   0.075345   0.003864  -0.175193   0.106353
     61      -0.258921   0.134989  -0.128493   0.048855   0.251920  -0.216135
     62      -0.013468   0.004986   0.014149   0.021951  -0.028280  -0.004327
     63      -0.037028   0.029364  -0.087713  -0.040922   0.216034  -0.026554
     64       0.123891  -0.044750   0.204587   0.187058  -0.502938  -0.017717
     65       0.011134   0.007193  -0.005818   0.025668  -0.008860  -0.015722
     66      -0.007678  -0.027504   0.078270  -0.008478   0.014052  -0.045598
     67       0.007828  -0.015349   0.030117  -0.044683   0.034003  -0.005507
     68      -0.004282  -0.008922   0.020853  -0.014799   0.012890  -0.008144
     69      -0.007965   0.022464  -0.107832   0.012028  -0.040747  -0.063101
     70       0.008332   0.009531  -0.056767   0.077558  -0.030490  -0.077088
     71      -0.001391   0.008749  -0.037044   0.028066  -0.013054  -0.034462
     72       0.017410   0.046070  -0.114037   0.101886   0.011255   0.091795
     73      -0.000184   0.012907  -0.037758   0.003028  -0.026796  -0.012578
     74       0.001069   0.011182  -0.028963   0.015233  -0.006224   0.010029
     75       0.000797  -0.014760   0.067853  -0.033277   0.034779   0.014009
     76      -0.001943  -0.005268   0.039189  -0.025256   0.011861   0.027153
     77       0.000005  -0.004411   0.022541  -0.012604   0.008030   0.011269
     78       0.002769   0.008440   0.000205  -0.000141  -0.005911   0.014625
     79      -0.003686  -0.012458  -0.024784   0.015689   0.002755   0.003109
     80      -0.000805  -0.002304  -0.007184   0.004336   0.000339   0.000064
     81      -0.002879  -0.006981   0.024530  -0.007640  -0.001575   0.041615
     82      -0.001632  -0.015574   0.019970   0.002157   0.028449   0.034924
     83       0.000009  -0.005203   0.010082  -0.001096   0.008160   0.016690
     84       0.009410   0.041399  -0.035146   0.018540  -0.012963   0.060820
     85       0.003154   0.024727  -0.028425  -0.009299  -0.016578  -0.083419
     86       0.002588   0.009668  -0.015463   0.000344  -0.006473  -0.019337
     87      -0.000748  -0.002738  -0.006832   0.009973  -0.002708  -0.002993
     88      -0.000374  -0.004507   0.010804  -0.000654   0.003313   0.003421
     89      -0.000273  -0.002252   0.002986   0.000677   0.000976   0.001455
     90      -0.008774   0.006542   0.032818  -0.047923  -0.006935  -0.129193
     91       0.009330   0.042125  -0.013133   0.021820  -0.008911   0.077976
     92       0.002397   0.032973  -0.000825  -0.003051  -0.011261   0.005846
     93      -0.006959  -0.048699   0.003083  -0.009032   0.006621  -0.043511
     94       0.000937   0.006683   0.000696   0.002296   0.001686   0.008596
     95      -0.001350  -0.014614   0.000270   0.000677   0.004221  -0.004905
     96      -0.000585  -0.070520  -0.064158   0.034309  -0.002114   0.041824
     97       0.001418   0.021565   0.028286  -0.010397   0.005698  -0.009910
     98       0.000254  -0.013509  -0.003651   0.005406   0.004275   0.006744
     99      -0.001364  -0.021327  -0.015951   0.006169   0.001945  -0.013672
    100      -0.002818  -0.028400  -0.016070   0.001470  -0.001431  -0.013565
    101      -0.002352  -0.028229  -0.018194   0.004060  -0.000340  -0.013792
    102       0.005021   0.099699   0.066880  -0.028385   0.001076  -0.007406
    103       0.002560   0.026038   0.010003   0.000424  -0.000654   0.018404
    104       0.003822   0.056278   0.032823  -0.010986  -0.000197   0.009373
    105       0.005871   0.018709  -0.012198   0.018035  -0.001503   0.049319
    106      -0.004984  -0.054752  -0.021765   0.006395   0.001783  -0.002381
    107      -0.001133  -0.030503  -0.020160   0.011699   0.000833   0.017153
    108      -0.003491  -0.178658  -0.156619   0.077648  -0.015768   0.098036
    109       0.004668   0.172700   0.149591  -0.062295   0.031909  -0.087000
    110       0.001539   0.064142   0.072442  -0.035487   0.010712  -0.046590
    111       0.032176   0.215562   0.026786   0.034365  -0.002389   0.135978
    112      -0.053310  -0.420720  -0.097539  -0.021304   0.003925  -0.161362
    113      -0.025475  -0.214626  -0.054995  -0.003203   0.002055  -0.057989
    114       0.018920   0.331189   0.236128  -0.100472   0.008446  -0.070602
    115       0.017248   0.268537   0.186826  -0.075074   0.006710  -0.045725
    116       0.016625   0.314729   0.225076  -0.093359   0.008557  -0.067916
    117      -0.043893  -0.395126  -0.053991   0.041797   0.046764   0.156575
    118       0.011367   0.074543   0.006893   0.000119  -0.005253  -0.012787
    119      -0.012241  -0.080275  -0.002958   0.000890   0.011165   0.012588
    120      -0.098247  -0.169848   0.430102  -0.438752  -0.199335   0.386755
    121       0.011557  -0.002548  -0.005954  -0.002887   0.060249  -0.065601
    122       0.006225  -0.020970   0.059846  -0.053329  -0.010977   0.054472
    123      -0.044654  -0.282090   0.228216  -0.257306  -0.069703  -0.393770
    124       0.001111   0.008666   0.010089   0.017539   0.035432   0.069657
    125      -0.002074  -0.034430   0.009426  -0.009223   0.001822  -0.008872
                 78         79         80         81         82         83    
      0       0.009441   0.011157  -0.003935   0.010908  -0.092487  -0.035589
      1      -0.009353   0.001061  -0.005035  -0.015778  -0.023421  -0.027728
      2      -0.002245   0.006066  -0.009819  -0.012096  -0.016882  -0.000251
      3      -0.001035   0.017728  -0.019217  -0.001370   0.050924  -0.024260
      4       0.010704   0.016926  -0.003191   0.010540  -0.011804  -0.012633
      5      -0.023376  -0.039616   0.077505   0.027853  -0.022743   0.006878
      6       0.004123  -0.008881   0.015103  -0.017879   0.006620   0.102331
      7       0.006347   0.006091  -0.003142  -0.037215  -0.005461   0.038773
      8       0.014682   0.010176  -0.029962  -0.015488  -0.006419   0.016052
      9      -0.055352  -0.058616   0.145633  -0.006291  -0.007908   0.179790
     10       0.076357  -0.005914  -0.064688   0.078781  -0.210318  -0.296140
     11      -0.014947  -0.075710   0.109535   0.055650  -0.126375  -0.046414
     12       0.022139   0.021133   0.016837   0.070648  -0.115920  -0.157667
     13      -0.051735  -0.010816  -0.055113  -0.151975   0.347665   0.311246
     14      -0.010111   0.029223  -0.018820  -0.025832   0.128410   0.043914
     15      -0.042271  -0.044063  -0.013929   0.010260   0.044263  -0.011378
     16      -0.031862  -0.016591   0.026920   0.106544   0.018425  -0.133067
     17      -0.006420   0.002420  -0.010481   0.031940   0.015607  -0.051817
     18      -0.027748  -0.038092   0.213016  -0.077633  -0.084978  -0.000448
     19       0.036116   0.035250  -0.103030  -0.043463   0.032398   0.043183
     20      -0.020029  -0.023042   0.101424  -0.017370  -0.055428  -0.004035
     21       0.198544   0.268863  -0.321302  -0.055602  -0.031086  -0.349934
     22      -0.056677  -0.074779   0.120537   0.032050   0.044059   0.115814
     23       0.068650   0.091912  -0.112303   0.008639  -0.000314  -0.151010
     24      -0.001806  -0.010342  -0.036522  -0.032649  -0.030217  -0.057729
     25      -0.022542   0.020576   0.042356  -0.026892   0.117171   0.069356
     26      -0.009591   0.006219   0.011669  -0.011097   0.033821   0.015384
     27      -0.014647  -0.042241   0.034250  -0.007800   0.076931   0.036095
     28       0.022331  -0.042143  -0.001884   0.017578  -0.105680  -0.012176
     29       0.025488  -0.031235  -0.042176  -0.018070  -0.010090  -0.003705
     30       0.075382   0.190971  -0.312566  -0.131255   0.339823   0.057539
     31       0.079354   0.228016  -0.332215  -0.125975   0.334486   0.101732
     32       0.062017   0.176186  -0.277812  -0.118815   0.305983   0.087409
     33      -0.029754  -0.066992   0.257090   0.201983  -0.029346   0.056654
     34      -0.058572  -0.073540   0.260901   0.172626   0.054749   0.057674
     35      -0.055373  -0.044228   0.185631   0.110569   0.068979   0.045507
     36       0.003599   0.004943   0.001276  -0.002066   0.002644   0.014985
     37      -0.012172  -0.007601   0.012200  -0.001368   0.089404   0.024077
     38      -0.000577  -0.008891   0.007529   0.010126   0.037971   0.001003
     39       0.003422  -0.021409  -0.006065   0.021829   0.015241  -0.029752
     40       0.012152  -0.001488  -0.014466   0.014259  -0.023536  -0.034011
     41      -0.037958   0.080237   0.038123   0.028646  -0.005456  -0.001875
     42      -0.127339   0.313274   0.116270   0.017024  -0.102811   0.029083
     43      -0.208621   0.510858   0.231577   0.122659  -0.236542  -0.034021
     44      -0.028575   0.064615   0.034098   0.024589  -0.010565  -0.008504
     45       0.085761  -0.102329  -0.117745  -0.057599  -0.066132  -0.058677
     46       0.125535  -0.216101  -0.209305  -0.106238  -0.050312  -0.128715
     47       0.012501  -0.063301  -0.044393  -0.020410  -0.003411  -0.048035
     48      -0.016413  -0.005513   0.013460   0.016542   0.024149  -0.031370
     49      -0.007418  -0.024805   0.001690  -0.028917   0.006891   0.050994
     50       0.010554  -0.033891  -0.016722  -0.010119  -0.001144  -0.008279
     51       0.024706   0.056183  -0.045902  -0.210511  -0.283471   0.159144
     52      -0.016840   0.047369   0.006532   0.048074  -0.007212  -0.068171
     53       0.017719  -0.029603  -0.005257  -0.030419  -0.015246   0.050808
     54      -0.048316   0.015552   0.090622   0.099933   0.204892   0.024735
     55       0.070585  -0.185079  -0.084892  -0.070534   0.046735  -0.006035
     56      -0.033153   0.058603   0.034931   0.021194   0.013971   0.007265
     57       0.032265   0.040708  -0.023389   0.053010  -0.079936  -0.022445
     58       0.040148   0.060201  -0.018567  -0.086432  -0.090567   0.098501
     59       0.026031   0.003336  -0.018792  -0.027270  -0.044663   0.025312
     60       0.131349  -0.163696  -0.139430  -0.183077  -0.137035   0.112554
     61      -0.202740   0.307906   0.211932   0.331618   0.182782  -0.200694
     62       0.008954  -0.029665  -0.013250  -0.011519   0.001158  -0.003036
     63      -0.040398   0.132588   0.059224  -0.043242  -0.046689   0.155177
     64       0.026539  -0.285613  -0.075890   0.096587   0.157479  -0.335704
     65      -0.018290   0.033929   0.017890  -0.022931  -0.012084   0.041867
     66      -0.013191  -0.009173  -0.002979   0.021827  -0.073050  -0.031795
     67      -0.019291   0.004130  -0.030853  -0.068624  -0.049772   0.032410
     68      -0.008761  -0.001791  -0.008089  -0.019006  -0.025368   0.007945
     69       0.012814   0.003209   0.032003   0.006313   0.038392   0.077063
     70       0.007754  -0.026998   0.017737   0.069713  -0.042584  -0.086604
     71       0.003033  -0.004672   0.011873   0.023459  -0.008031  -0.015722
     72       0.072245   0.024238   0.015796  -0.052113  -0.023106   0.078867
     73       0.022584  -0.027385  -0.000352   0.081549   0.128642  -0.007886
     74       0.017210  -0.004697   0.001972   0.017582   0.036434   0.009649
     75      -0.017911  -0.006032  -0.006512  -0.027653   0.001151  -0.007822
     76      -0.019338   0.008408  -0.011286  -0.032497  -0.005834  -0.000021
     77      -0.008087   0.001157  -0.005162  -0.013393  -0.001113  -0.000924
     78      -0.047478   0.002187  -0.003427  -0.063567  -0.006326  -0.016970
     79       0.056219   0.006012   0.000242   0.095560   0.007374   0.001735
     80       0.010864   0.001441  -0.000297   0.021651   0.000633  -0.000048
     81       0.088390   0.006004  -0.015550   0.115846   0.055838  -0.025337
     82       0.052181   0.017851  -0.010975   0.036567  -0.040427   0.062958
     83       0.027648   0.006059  -0.005576   0.026461  -0.003263   0.014881
     84      -0.104867   0.013965  -0.006128  -0.066377   0.016153  -0.126507
     85      -0.116401  -0.022086   0.037331  -0.224828  -0.008004  -0.014828
     86      -0.048055  -0.004740   0.011689  -0.079238  -0.002498  -0.018918
     87       0.034929  -0.001646  -0.001812   0.052701   0.000891   0.012158
     88       0.018888  -0.000914  -0.003721   0.022926  -0.001068   0.010463
     89       0.010245  -0.000321  -0.001381   0.013458   0.000319   0.004268
     90      -0.101676  -0.036300   0.000055  -0.042891  -0.034295   0.090090
     91      -0.157176  -0.000479  -0.052334   0.029760   0.011925  -0.051540
     92      -0.144588  -0.013762  -0.032824  -0.003706   0.000807  -0.008983
     93       0.098196  -0.000634   0.047618  -0.098127   0.008465  -0.024032
     94       0.013168   0.003101  -0.006968   0.037286  -0.004884   0.019626
     95       0.044875   0.003162   0.011554  -0.007301  -0.001207   0.002888
     96      -0.095015   0.000641  -0.042125   0.090289  -0.026434   0.058201
     97       0.149735   0.011833   0.047694  -0.059207   0.026192  -0.058958
     98       0.067061   0.007906   0.016022  -0.004670   0.006747  -0.016305
     99       0.096576   0.006709   0.054532  -0.147779   0.038329  -0.088908
    100      -0.037080  -0.005876  -0.010044   0.021789  -0.014769   0.036467
    101       0.009715  -0.001398   0.013117  -0.039688   0.003706  -0.007083
    102      -0.013222  -0.002273  -0.022928   0.089900  -0.022378   0.053469
    103      -0.062251  -0.002916  -0.032403   0.068123  -0.015405   0.039887
    104      -0.047746  -0.002955  -0.030665   0.079877  -0.018672   0.047128
    105      -0.037263   0.005508  -0.027110   0.058405  -0.000032   0.001098
    106       0.066398   0.007056   0.028486  -0.052262   0.018492  -0.044048
    107       0.032250   0.007019   0.009617  -0.014422   0.012527  -0.030533
    108      -0.217731  -0.004791  -0.056397   0.007631   0.027744  -0.094085
    109       0.332969   0.022495   0.067246   0.057524  -0.057175   0.174242
    110       0.178504   0.010958   0.036136   0.046449  -0.028874   0.088299
    111       0.086409   0.036937  -0.015147   0.100766   0.029311  -0.062885
    112      -0.160010  -0.050383   0.006248  -0.129740  -0.037626   0.072831
    113      -0.078159  -0.020967  -0.002629  -0.044666  -0.013428   0.028876
    114       0.230986   0.004156   0.056861  -0.001154   0.000394  -0.005391
    115       0.180282   0.002915   0.045837  -0.016729   0.004552  -0.013026
    116       0.223770   0.002151   0.054915  -0.008563   0.005149  -0.008123
    117       0.266466   0.058251  -0.050046   0.364539   0.003766   0.071343
    118      -0.023761  -0.004696   0.008987  -0.044598  -0.006516  -0.004257
    119       0.088568   0.010538  -0.002545   0.071554   0.002408   0.027046
    120      -0.321056   0.159670   0.150957  -0.126564   0.185318  -0.178123
    121       0.011334  -0.018870  -0.049802  -0.050967  -0.079397   0.050778
    122      -0.031848   0.024316   0.005829  -0.029305  -0.001884  -0.016647
    123       0.121643  -0.108589   0.018104   0.387622  -0.023643   0.262249
    124       0.064810   0.027470  -0.014259   0.020275  -0.031156   0.049030
    125       0.001347  -0.002466  -0.004721   0.039894  -0.016552   0.028486
                 84         85         86         87         88         89    
      0      -0.052330   0.020572  -0.033006  -0.015900  -0.034631  -0.003331
      1      -0.023766  -0.008682  -0.065789   0.024635  -0.021115   0.030282
      2      -0.016264   0.020962  -0.024648   0.003554  -0.022297   0.009307
      3       0.024536  -0.062155  -0.018555   0.035871   0.036269   0.025448
      4       0.033345  -0.008293   0.089991  -0.093190  -0.058093  -0.074985
      5       0.008307  -0.009014   0.028119  -0.030150  -0.009884  -0.021950
      6      -0.031565   0.157853   0.022520   0.024789   0.011192   0.011856
      7       0.010953   0.002936  -0.027601  -0.001650   0.011775   0.027437
      8      -0.018610   0.039490  -0.021241   0.023138   0.008458   0.017988
      9       0.001101   0.170447   0.163907  -0.174227  -0.083633  -0.097047
     10      -0.106716  -0.253958  -0.424020   0.348121   0.176619   0.247018
     11      -0.058217  -0.039675  -0.131378   0.088591   0.052124   0.076650
     12       0.048549  -0.155259   0.055467  -0.109961  -0.082194  -0.089405
     13      -0.037630   0.232369  -0.085942   0.242197   0.210488   0.191141
     14       0.033826  -0.036840  -0.004977   0.044125   0.073513   0.049726
     15      -0.079903   0.013042  -0.024037  -0.002541  -0.025007  -0.013035
     16       0.046950  -0.055446   0.061038   0.075451   0.016402  -0.052202
     17       0.007531  -0.027806   0.011567   0.027481   0.004009  -0.015772
     18       0.136590  -0.393615   0.031688  -0.331520  -0.099319  -0.073459
     19      -0.062903   0.083440  -0.061875   0.082583   0.041778   0.049405
     20       0.078811  -0.126179   0.015195  -0.112456  -0.036052  -0.017137
     21       0.173634  -0.543105  -0.132113  -0.007390   0.007035   0.028203
     22      -0.035237   0.137621   0.086568  -0.011383   0.005198  -0.040590
     23       0.055756  -0.209037  -0.026321   0.001240   0.001943  -0.014071
     24      -0.145458  -0.015302  -0.019170  -0.053239  -0.029961   0.003856
     25      -0.018071  -0.040951  -0.011024  -0.032451  -0.010126   0.018436
     26      -0.025743  -0.012892  -0.006829  -0.018062  -0.007839   0.005812
     27       0.088556  -0.029774   0.024026   0.028530   0.018091  -0.003189
     28      -0.045038   0.040094  -0.006117  -0.004380   0.010245  -0.007312
     29       0.015740   0.010970   0.005148  -0.002258   0.002851  -0.017469
     30       0.153060  -0.053367   0.163345  -0.057411   0.038043  -0.080613
     31       0.071715   0.051123   0.257471  -0.118726   0.040045  -0.089423
     32       0.099409   0.016549   0.186188  -0.073098   0.031702  -0.070181
     33       0.008747  -0.049660   0.108567   0.042551   0.187092   0.004850
     34       0.018591  -0.084173   0.078319   0.086070   0.219309   0.055209
     35      -0.011944  -0.048149   0.076242   0.048935   0.171880   0.054216
     36       0.007746   0.003696  -0.060037   0.014147  -0.021993  -0.022963
     37       0.076499  -0.027485  -0.028447   0.040618  -0.031647   0.029948
     38       0.034461  -0.000890  -0.023407   0.000040  -0.007471  -0.001493
     39       0.003912  -0.011300   0.095650  -0.006462  -0.030856   0.162648
     40       0.001827   0.033123  -0.009088  -0.042973   0.000527  -0.002619
     41      -0.011199   0.008212  -0.001664  -0.007636  -0.000469   0.007927
     42      -0.257669  -0.053898   0.221054  -0.055668   0.077670   0.059640
     43      -0.425095  -0.009768   0.179383  -0.105214   0.071344   0.076076
     44      -0.036296  -0.001386   0.022144  -0.020330   0.010231   0.011323
     45      -0.039200   0.046596   0.038360  -0.114502   0.106256  -0.207343
     46       0.017586   0.058552   0.151574  -0.160769   0.179475  -0.261644
     47       0.048952   0.021496   0.023013  -0.002470   0.013760  -0.014884
     48      -0.004321   0.008664  -0.040697  -0.033031  -0.013587  -0.028852
     49      -0.093351  -0.081275   0.056844   0.091568   0.039892  -0.057751
     50      -0.044163  -0.020213   0.022878   0.003492   0.002550  -0.002103
     51      -0.459083  -0.112669  -0.035284   0.090248   0.179209  -0.504507
     52       0.032030   0.056143  -0.007390  -0.072247  -0.009155   0.022900
     53      -0.046036  -0.036048   0.005355   0.045674   0.008719  -0.011935
     54       0.429520   0.174024  -0.529880  -0.025299   0.057159  -0.538857
     55       0.013260  -0.052246   0.050847   0.031238  -0.001186   0.005739
     56       0.009594   0.003933  -0.024066   0.004627   0.002946  -0.023404
     57       0.122308   0.090491   0.009409   0.019401   0.036628   0.010836
     58       0.075521   0.039105  -0.040829  -0.002630  -0.012836   0.039121
     59       0.039444   0.021028  -0.001745   0.005078   0.001448   0.019125
     60      -0.109585  -0.088935   0.178933   0.126354   0.057519   0.039811
     61       0.171963   0.213123  -0.274095  -0.252626  -0.088703   0.013257
     62      -0.045244  -0.022782   0.017761   0.004360   0.002899  -0.009086
     63      -0.025168  -0.057241  -0.017976   0.152688   0.084122  -0.171604
     64      -0.008028   0.096441  -0.027738  -0.331224  -0.176329   0.263266
     65      -0.010200   0.002889  -0.013724   0.014413   0.011919  -0.013722
     66       0.102732   0.007884   0.027052   0.010428   0.015874  -0.008000
     67      -0.009938   0.055111  -0.015642  -0.010411  -0.011267   0.019061
     68       0.009876   0.020404  -0.000628  -0.002559  -0.002021   0.004533
     69      -0.017112  -0.043252   0.012134   0.043438  -0.003691  -0.013038
     70       0.116458   0.016854   0.063728   0.027400   0.018138  -0.014880
     71       0.037058  -0.000662   0.021322   0.014804   0.005477  -0.007407
     72       0.045341  -0.084257  -0.015181  -0.045306   0.017866   0.025672
     73      -0.166646  -0.016976  -0.050858  -0.045931  -0.012517  -0.012103
     74      -0.046808  -0.016548  -0.018644  -0.020461  -0.001810  -0.000156
     75      -0.021606   0.002009  -0.012215  -0.015829  -0.012236   0.003996
     76      -0.010607   0.011586  -0.010788  -0.001826  -0.003353   0.003306
     77      -0.006751   0.004069  -0.004953  -0.002974  -0.002448   0.001687
     78       0.013168   0.004297  -0.000157   0.005817  -0.018656  -0.002169
     79      -0.001882   0.019420   0.016221   0.009490   0.020416  -0.005403
     80       0.001777   0.004508   0.004648   0.002773   0.004014  -0.001838
     81      -0.087318   0.014366  -0.020193   0.004247  -0.012773  -0.007214
     82       0.040711  -0.022066  -0.000448  -0.013973   0.035713   0.014820
     83      -0.001158  -0.004509  -0.003499  -0.004687   0.010104   0.003724
     84      -0.007654   0.102174   0.040025   0.060077  -0.003058  -0.018275
     85       0.025806  -0.034298  -0.004689   0.021138  -0.095108  -0.008454
     86       0.008619   0.002303   0.005037   0.017470  -0.036278  -0.005670
     87      -0.003283  -0.008879  -0.001400  -0.010934   0.019832   0.004027
     88      -0.004137  -0.009156  -0.005824  -0.011476   0.010626   0.004259
     89      -0.002475  -0.003426  -0.002151  -0.004393   0.005157   0.001592
     90       0.036549  -0.078008  -0.024120  -0.043801   0.002612   0.011149
     91      -0.017904   0.030132  -0.003819  -0.021035   0.072106   0.005839
     92      -0.002002  -0.004527  -0.010654  -0.027523   0.047204   0.006708
     93       0.012713  -0.006984  -0.006886  -0.039323   0.059292   0.012965
     94      -0.005653  -0.003932   0.001596   0.016036  -0.031384  -0.004162
     95       0.001882  -0.002844  -0.000136  -0.001850   0.000261   0.001672
     96       0.016373  -0.016666   0.005247   0.011067  -0.027921  -0.000052
     97      -0.013164   0.032994   0.005963  -0.000971   0.029145  -0.000486
     98      -0.003963   0.014331   0.004914   0.002447   0.010366   0.000033
     99      -0.018737   0.025623  -0.001514   0.007729  -0.002352  -0.005819
    100       0.013110  -0.019657  -0.002031  -0.006369  -0.003613   0.003169
    101       0.002634  -0.004297  -0.001827  -0.001421  -0.004112   0.000114
    102       0.009228  -0.012520   0.004763   0.016440  -0.037905  -0.004928
    103       0.003025  -0.015401  -0.002320   0.008089  -0.027206  -0.002074
    104       0.005326  -0.015171   0.000208   0.011641  -0.033163  -0.003308
    105      -0.011830   0.009046   0.001013   0.007022   0.000775  -0.000723
    106      -0.007970   0.025349   0.009467   0.016614  -0.010074  -0.007143
    107      -0.009735   0.021272   0.007096   0.013971  -0.006062  -0.005068
    108      -0.036917   0.053411  -0.012117  -0.095857   0.251796   0.033054
    109       0.065386  -0.079530   0.028849   0.161761  -0.392964  -0.049587
    110       0.035504  -0.031853   0.021079   0.083963  -0.201611  -0.026747
    111      -0.035093   0.080146   0.036877   0.095933  -0.097092  -0.031542
    112       0.035291  -0.103769  -0.055854  -0.148845   0.174134   0.050598
    113       0.008324  -0.042745  -0.025775  -0.065815   0.082858   0.023193
    114       0.025762   0.009690   0.000031  -0.083523   0.172345   0.031839
    115       0.023930   0.003658  -0.007839  -0.099794   0.195973   0.037738
    116       0.023497   0.004235  -0.007289  -0.102027   0.203266   0.038523
    117      -0.092449   0.064069   0.052515   0.241740  -0.372286  -0.075162
    118       0.018089  -0.012587  -0.007051  -0.037704   0.056675   0.013725
    119      -0.025470   0.004391   0.006924   0.053787  -0.092348  -0.016174
    120       0.005360  -0.080883   0.125437   0.247577  -0.013431  -0.048737
    121      -0.007808   0.075572  -0.027248  -0.035504  -0.008970   0.023076
    122       0.017150  -0.002044   0.012030   0.021750   0.000057   0.001764
    123       0.008681  -0.054149  -0.018545  -0.177389   0.138119   0.028442
    124       0.026384  -0.022244  -0.004879  -0.001787   0.019268   0.012552
    125       0.015906  -0.005737   0.001237  -0.021677   0.034729   0.007274
                 90         91         92         93         94         95    
      0      -0.048388  -0.008523  -0.027101  -0.012219  -0.017165  -0.010232
      1      -0.036899  -0.058556  -0.052831   0.063601   0.028877   0.007492
      2      -0.036102  -0.030292  -0.041981   0.052074   0.028754   0.008581
      3       0.048238  -0.001875   0.029542  -0.007230  -0.001149  -0.002058
      4      -0.064413   0.021489  -0.005039  -0.009233   0.000263   0.003330
      5      -0.008472   0.014937   0.021959  -0.004932   0.005280  -0.009347
      6       0.000807   0.017021  -0.116870   0.004609  -0.014158   0.016243
      7       0.021322  -0.016136   0.046890   0.018538   0.003454   0.067966
      8       0.005510  -0.006295  -0.029037   0.003529  -0.003573  -0.004696
      9      -0.091671   0.051971   0.010513  -0.027492  -0.040337   0.079303
     10       0.188736  -0.064597   0.031574   0.007643  -0.013485   0.003990
     11       0.056292  -0.002877   0.037425  -0.006309  -0.014582   0.019894
     12      -0.093723   0.013279   0.036210  -0.005379   0.010794  -0.002927
     13       0.255666  -0.015902  -0.029321  -0.006182  -0.018011  -0.010832
     14       0.104677   0.026873   0.068866  -0.050469  -0.054946   0.082645
     15      -0.024286  -0.044071   0.121218   0.007303   0.032681  -0.015630
     16      -0.022795   0.064682  -0.129749  -0.008596   0.011120  -0.008950
     17      -0.007478   0.014341  -0.024253  -0.002550   0.007405  -0.007398
     18      -0.024435  -0.027927   0.427692  -0.059842   0.012575  -0.218111
     19       0.037244  -0.002136  -0.093248  -0.072524  -0.031855  -0.373569
     20      -0.011292  -0.024359   0.187841   0.076878   0.033170   0.373194
     21       0.040119  -0.045620   0.178339   0.002178   0.012290   0.014666
     22      -0.005334   0.070734  -0.110960  -0.117938  -0.037809  -0.490091
     23       0.007029   0.014580   0.019404  -0.068502  -0.012695  -0.301647
     24       0.027240  -0.051471  -0.072593  -0.069085  -0.075575   0.002214
     25       0.003879  -0.074967   0.014829   0.043683  -0.003183   0.027120
     26       0.004053  -0.028642  -0.004913   0.004360  -0.010616   0.009477
     27       0.013903  -0.017922  -0.009020   0.067575   0.051440  -0.004557
     28       0.020242   0.045064   0.044580  -0.046133  -0.014331  -0.013020
     29       0.005475   0.007699   0.012512  -0.011130  -0.001134  -0.005371
     30       0.070027   0.022936   0.067108   0.116885   0.121206   0.095587
     31       0.111102   0.122355   0.102055  -0.347186  -0.240742  -0.073639
     32       0.074944   0.056471   0.056015  -0.078880  -0.037556   0.014118
     33       0.255903   0.216582   0.257250  -0.023950   0.070309   0.062714
     34       0.305207   0.184776   0.259608  -0.126909  -0.027072   0.017136
     35       0.259606   0.162279   0.221679  -0.387595  -0.259242  -0.101201
     36      -0.052683   0.018596   0.020598  -0.075128  -0.050984   0.000966
     37      -0.082128   0.002746   0.004723  -0.023804  -0.016774  -0.001328
     38      -0.009777  -0.004667  -0.008690   0.016555   0.010543  -0.000401
     39      -0.021093   0.014773   0.004437   0.008952   0.006913   0.001366
     40       0.045132   0.001620  -0.008485   0.006782   0.008292  -0.005314
     41       0.000386   0.000269   0.000831   0.003796  -0.002258   0.006225
     42       0.130382  -0.088960  -0.058396   0.346866   0.220311   0.001944
     43       0.191743  -0.000530  -0.028763  -0.002651  -0.023436   0.034207
     44       0.034551  -0.008806  -0.017658   0.040924   0.024776   0.002999
     45       0.251221  -0.078183  -0.088753   0.207280   0.137337  -0.002437
     46       0.433012  -0.117285  -0.144469   0.237901   0.158744   0.000916
     47       0.054923   0.031815   0.013354  -0.212508  -0.142051   0.012646
     48       0.033260  -0.031110  -0.030339  -0.021879  -0.041825   0.025126
     49      -0.061323  -0.001816   0.010771  -0.003430  -0.019934   0.023827
     50       0.002903  -0.009650  -0.011110  -0.009060  -0.026224   0.023719
     51       0.088741  -0.059435  -0.005959   0.016575  -0.007184   0.019259
     52       0.065308  -0.024769  -0.029657   0.032381  -0.001238   0.028139
     53      -0.041772   0.047376   0.037148  -0.044769   0.014004  -0.055783
     54       0.065532  -0.032206  -0.020888  -0.014247   0.001674  -0.018282
     55      -0.010365  -0.063625  -0.039207   0.037367  -0.026186   0.062168
     56      -0.007975  -0.009067  -0.002823   0.005394  -0.007801   0.014215
     57      -0.020505   0.094492   0.045021   0.022780   0.023742   0.018980
     58      -0.007819   0.044573   0.033455  -0.009279   0.020401  -0.023691
     59      -0.006320   0.025867   0.015575  -0.000910   0.006938  -0.003059
     60      -0.070746   0.086939   0.119020   0.151159   0.363126  -0.300530
     61       0.152311   0.015646  -0.019404   0.057577   0.165436  -0.156726
     62       0.002923  -0.011652  -0.014660  -0.015303  -0.040940   0.037182
     63      -0.098841   0.034642   0.069316   0.040288   0.099157  -0.081180
     64       0.242101  -0.094563  -0.116025   0.008531   0.058616  -0.089265
     65      -0.004995   0.052588   0.094092   0.144464   0.377098  -0.335780
     66       0.003761   0.058379   0.058205   0.009478   0.009429   0.028692
     67       0.005435  -0.050632   0.066397  -0.006340  -0.010105  -0.001261
     68       0.001370  -0.008264   0.029275  -0.000350  -0.001518   0.003325
     69      -0.038653  -0.047868   0.036274   0.003989   0.004052  -0.011453
     70       0.025714  -0.076030  -0.053867  -0.003501  -0.045388   0.010682
     71       0.002602  -0.033727  -0.012428  -0.000637  -0.013841   0.001284
     72       0.025315  -0.048705  -0.135971  -0.002639  -0.048296  -0.025233
     73      -0.014713   0.074979   0.038894   0.013309   0.048474   0.006615
     74      -0.000899   0.017856  -0.007932   0.003135   0.008622  -0.002064
     75       0.015254   0.013475  -0.008104  -0.004302   0.005024   0.001146
     76      -0.001442   0.023950   0.015860  -0.001691   0.009890  -0.000223
     77       0.001164   0.009731   0.004246  -0.000863   0.003570   0.000128
     78       0.012417   0.007167  -0.001836  -0.017705   0.020444   0.007026
     79      -0.019560  -0.077524   0.019524   0.007965  -0.017141  -0.005548
     80      -0.003961  -0.020339   0.003847   0.000303  -0.002919  -0.000503
     81      -0.014588   0.190101  -0.033641  -0.009669   0.053604   0.027193
     82      -0.015294  -0.010330  -0.030064   0.017354  -0.036314  -0.009691
     83      -0.008080   0.023235  -0.012844   0.006073  -0.005324   0.000498
     84      -0.016124  -0.156398   0.116876  -0.009263  -0.004186  -0.011246
     85       0.065762   0.038907  -0.025225  -0.060464   0.073547   0.018950
     86       0.022573  -0.015806   0.006907  -0.026478   0.028517   0.005539
     87      -0.008919   0.014120  -0.009524   0.015065  -0.017964  -0.003155
     88      -0.002901   0.026249  -0.011537   0.009014  -0.009025  -0.001087
     89      -0.001825   0.009960  -0.004500   0.004560  -0.004267  -0.000664
     90       0.015258   0.076849  -0.032723   0.034856  -0.033500  -0.004080
     91      -0.047573   0.049023   0.026659   0.069386  -0.077431  -0.015514
     92      -0.026291   0.060166   0.009804   0.057314  -0.060748  -0.011150
     93      -0.021920  -0.013694  -0.035129  -0.012745   0.004407   0.000125
     94       0.015279  -0.001737  -0.008209  -0.031516   0.038105   0.008938
     95       0.002405  -0.012017  -0.017164  -0.025923   0.026396   0.005606
     96       0.019191  -0.063304  -0.025611  -0.062909   0.064760   0.012434
     97      -0.021043  -0.025663   0.024472  -0.005366   0.005820  -0.000915
     98      -0.007709  -0.035688   0.005463  -0.029169   0.030584   0.004622
     99      -0.005049   0.095623   0.024662   0.093127  -0.096226  -0.016214
    100       0.007265  -0.020970  -0.020657  -0.032194   0.033823   0.007230
    101       0.003596   0.020212  -0.005716   0.012282  -0.012395  -0.000992
    102       0.022140  -0.036329   0.008787  -0.003133   0.000768  -0.002811
    103       0.015253   0.023673  -0.004029   0.026528  -0.028944  -0.005689
    104       0.018910   0.002592   0.000963   0.018156  -0.020720  -0.005179
    105      -0.005050   0.003410  -0.004451  -0.028044   0.034775   0.008874
    106       0.000483  -0.028624   0.036620   0.014770  -0.017052  -0.006255
    107      -0.001760  -0.019259   0.023716  -0.000388   0.000894  -0.001042
    108      -0.146450  -0.091817   0.006845  -0.186690   0.202698   0.034611
    109       0.228249   0.047220  -0.035733   0.164131  -0.180787  -0.028772
    110       0.118425  -0.031406  -0.008233   0.073263  -0.084426  -0.015286
    111       0.027700  -0.071852   0.105938   0.033438  -0.031690  -0.011042
    112      -0.062500   0.101049  -0.168856  -0.112056   0.119545   0.033599
    113      -0.031808   0.047508  -0.078297  -0.065492   0.072184   0.019253
    114      -0.079383  -0.195566  -0.056610  -0.221072   0.230813   0.044141
    115      -0.091081  -0.147790  -0.078585  -0.206086   0.215732   0.044419
    116      -0.095426  -0.168274  -0.075424  -0.227220   0.238839   0.047584
    117       0.154016  -0.086853   0.137372  -0.068221   0.105512   0.016261
    118      -0.020539  -0.001945  -0.043647  -0.023966   0.019243   0.005748
    119       0.039620  -0.004306   0.016995  -0.038432   0.052695   0.010565
    120      -0.018887  -0.231834  -0.415532  -0.044155  -0.049881  -0.101695
    121       0.006069  -0.021057   0.126540   0.000096  -0.002597   0.011567
    122       0.005813  -0.033398  -0.031401  -0.004707  -0.009760  -0.004234
    123      -0.019835  -0.664976   0.190332   0.188420  -0.258475  -0.104116
    124      -0.013068   0.076261  -0.051314   0.007567  -0.014591   0.000736
    125      -0.012202  -0.066643   0.005034   0.011272  -0.023495  -0.009858
                 96         97         98         99        100        101    
      0       0.014511  -0.034163   0.018030  -0.000250  -0.005053   0.004891
      1      -0.019598   0.014357  -0.011361   0.002367  -0.033611  -0.000530
      2      -0.020493   0.022707  -0.005906  -0.000117  -0.018527  -0.000079
      3      -0.002649   0.003421   0.044349  -0.009378  -0.009942  -0.000784
      4       0.006595   0.004578   0.002588  -0.000931   0.013351   0.002852
      5      -0.011721   0.012539   0.070336  -0.017223  -0.006824   0.000374
      6       0.016814   0.002858   0.001776  -0.003888  -0.036087   0.011813
      7       0.036666  -0.001676   0.018010  -0.003093   0.008783  -0.000662
      8      -0.003603  -0.001152   0.002183  -0.001408  -0.017503   0.000758
      9       0.099834  -0.083047  -0.586628   0.136780   0.143231  -0.005902
     10       0.019880  -0.061803  -0.192546   0.048698   0.014587  -0.004429
     11       0.030126  -0.045849  -0.236600   0.055521   0.046804  -0.005669
     12      -0.001254   0.004425   0.047072  -0.009373   0.012345   0.003243
     13      -0.020527   0.027268   0.176938  -0.044471  -0.081538  -0.003119
     14       0.113047  -0.104570  -0.629721   0.151600   0.141287  -0.010658
     15      -0.014700   0.011320   0.004873   0.006737   0.140581  -0.025250
     16       0.021526   0.009318   0.000040   0.004488   0.060509   0.036274
     17       0.003144   0.003923  -0.001848   0.002735   0.036828   0.008082
     18      -0.187797  -0.015639  -0.028336   0.002261  -0.083824  -0.060555
     19      -0.248249  -0.016724  -0.082375   0.008639  -0.179062  -0.030172
     20       0.233255   0.011821   0.097306  -0.012914   0.155667   0.018413
     21      -0.000407  -0.018198  -0.015877   0.009482   0.008441  -0.005718
     22      -0.318035  -0.010906  -0.108735   0.011090  -0.199081  -0.031967
     23      -0.201667  -0.015571  -0.073251   0.011903  -0.113779  -0.024245
     24       0.045556   0.004468  -0.001162  -0.009787  -0.041909  -0.010836
     25      -0.005899  -0.014442  -0.007405  -0.002579  -0.138197  -0.019995
     26       0.005866  -0.003525  -0.001808  -0.002835  -0.048343  -0.007247
     27      -0.020402  -0.007172  -0.002587   0.013227   0.049729   0.013407
     28       0.006153  -0.009627   0.007328  -0.004511   0.062093  -0.003143
     29       0.001836  -0.004843   0.000710   0.002524   0.026932  -0.001025
     30      -0.123926   0.309130  -0.124222  -0.028725  -0.082911  -0.051704
     31       0.189552  -0.255468   0.069507   0.017916   0.089341   0.024472
     32       0.015651   0.043195  -0.026878  -0.005555  -0.001977  -0.012652
     33      -0.105577   0.260175  -0.048930  -0.044372  -0.007291  -0.050957
     34      -0.018375   0.091843  -0.011375  -0.024004   0.014800  -0.031392
     35       0.195801  -0.316984   0.127024   0.013500   0.104937   0.026919
     36       0.024164   0.042057  -0.006185  -0.023841  -0.036293  -0.003245
     37       0.013059  -0.016678   0.003226   0.009515  -0.024637  -0.004616
     38      -0.002376  -0.031197   0.003776   0.008447   0.002005  -0.002190
     39      -0.009571   0.004017  -0.000799   0.005251  -0.004407   0.003485
     40       0.004299   0.018300   0.015073   0.073601  -0.010538  -0.000335
     41      -0.008854  -0.013160  -0.006305  -0.036037   0.000137   0.000727
     42      -0.100413  -0.423031   0.066151   0.128954   0.118478  -0.023633
     43      -0.024167   0.290673  -0.058702  -0.115037  -0.063707   0.035389
     44      -0.014637  -0.030269   0.001912   0.004494   0.015771   0.000991
     45      -0.053525  -0.133085   0.023967   0.064795   0.099636   0.004211
     46      -0.065445   0.091720  -0.011910   0.039609   0.109627   0.038549
     47       0.050844   0.501266  -0.085111  -0.148520  -0.103959   0.044857
     48      -0.038036  -0.000499   0.005986   0.018610   0.055192   0.000408
     49      -0.007684  -0.008613  -0.002392   0.005064  -0.090888  -0.006323
     50      -0.029993  -0.003507   0.000976   0.007083  -0.002747   0.000242
     51      -0.002637  -0.012281  -0.003829  -0.042825  -0.004071  -0.009748
     52      -0.058661  -0.076565  -0.045718  -0.245420   0.081727   0.010961
     53       0.108990   0.167228   0.112369   0.590413  -0.183354  -0.022289
     54       0.036078  -0.034446  -0.000265  -0.016105   0.009290  -0.007011
     55      -0.114431  -0.178663  -0.126061  -0.641302   0.204109   0.022535
     56      -0.021700  -0.040530  -0.024026  -0.126676   0.025195   0.002875
     57      -0.023001  -0.026600  -0.005309  -0.007743  -0.194975   0.005379
     58      -0.030537   0.020247   0.008815   0.006991   0.212393   0.022641
     59      -0.014102   0.002511   0.002350   0.002840   0.034693   0.007314
     60       0.436646   0.053671  -0.031773  -0.122323  -0.122551  -0.019619
     61       0.208594   0.020028  -0.011086  -0.068723   0.058872   0.000838
     62      -0.051687  -0.005838   0.002818   0.012594   0.012600   0.002324
     63       0.140740   0.002462  -0.011313  -0.038498  -0.113283  -0.014544
     64       0.088758   0.048258   0.007533   0.003488   0.253795   0.006522
     65       0.483942   0.056017  -0.030962  -0.137004  -0.057087  -0.022173
     66      -0.014444  -0.019705  -0.005806  -0.001575  -0.108917  -0.000981
     67      -0.005791   0.003235   0.003416   0.000324   0.049096  -0.026688
     68      -0.004302  -0.001603   0.000157   0.000007   0.000967  -0.008701
     69      -0.016905   0.023646   0.008261   0.013231   0.236977  -0.012644
     70       0.022233  -0.008769  -0.002995  -0.003384  -0.070039  -0.033364
     71       0.004730   0.000993   0.000336   0.000868   0.014951  -0.012415
     72       0.031707   0.010082  -0.000581  -0.004282  -0.044196   0.050642
     73      -0.008559  -0.010768  -0.003672  -0.004263  -0.115010   0.022356
     74       0.001264  -0.001802  -0.001177  -0.001898  -0.040025   0.014240
     75       0.005294  -0.002398  -0.000966  -0.002634  -0.029054   0.007478
     76      -0.006155  -0.001306  -0.000477   0.000831  -0.002707   0.004382
     77      -0.001435  -0.000653  -0.000208  -0.000059  -0.004363   0.002039
     78      -0.000218  -0.003013   0.000223  -0.003246  -0.032511  -0.018136
     79       0.009792   0.007928   0.003332  -0.002678   0.030245  -0.025946
     80       0.002949   0.001913   0.001089  -0.001265   0.005111  -0.009114
     81      -0.018964  -0.006589   0.003865  -0.000193   0.060725  -0.033274
     82       0.006003   0.009469   0.002390   0.001615   0.062315   0.005072
     83      -0.000469   0.002241   0.001294   0.000391   0.027664  -0.004046
     84      -0.001185   0.001597  -0.003028   0.003041  -0.021538  -0.041010
     85      -0.009911  -0.013396  -0.004050  -0.000038  -0.074567   0.032647
     86      -0.003888  -0.004669  -0.001949   0.000418  -0.029813   0.003547
     87      -0.000365   0.000205  -0.000724   0.001994   0.011503   0.011679
     88      -0.001091  -0.000822  -0.000684   0.001170   0.003099   0.011307
     89      -0.000459  -0.000233  -0.000260   0.000526   0.002511   0.004556
     90       0.002572   0.000692  -0.000535   0.000483   0.000599   0.128573
     91       0.008427   0.007307   0.001773  -0.000590   0.026523  -0.044281
     92       0.005894   0.004687   0.000910  -0.000123   0.016679   0.014683
     93       0.006506   0.001003   0.001360  -0.002975  -0.011160  -0.039440
     94      -0.006178  -0.003242  -0.000053   0.000447   0.001858  -0.045994
     95      -0.001402  -0.001671   0.000478  -0.000849  -0.003478  -0.046522
     96      -0.004435  -0.004465  -0.000609  -0.000688  -0.019450  -0.054437
     97      -0.003941   0.000706  -0.000850   0.002277   0.009521   0.088410
     98      -0.004902  -0.001298  -0.000804   0.001453   0.001064   0.044439
     99       0.010273   0.005600   0.002044  -0.001558   0.018052  -0.059384
    100      -0.002530  -0.002647  -0.000360  -0.000408  -0.009432  -0.029671
    101       0.002167   0.000255   0.000577  -0.000888  -0.000281  -0.044391
    102       0.000864  -0.000035  -0.001316   0.000668  -0.011618   0.097344
    103       0.004844   0.002143   0.000980  -0.001071   0.005207  -0.014568
    104       0.003867   0.001493   0.000202  -0.000485  -0.001046   0.026664
    105      -0.007031  -0.002428   0.000418   0.000762   0.013310  -0.082915
    106       0.000820   0.000926  -0.001904   0.001573  -0.013483   0.133759
    107      -0.002011  -0.000275  -0.001236   0.001417  -0.004491   0.061669
    108      -0.039460  -0.006991  -0.005137   0.012167   0.042356   0.362666
    109       0.043690   0.002961   0.006243  -0.016081  -0.070534  -0.524915
    110       0.023405   0.000700   0.002221  -0.008619  -0.053606  -0.273480
    111      -0.003902   0.001027  -0.004126   0.004901  -0.008846   0.201386
    112      -0.007342  -0.006350   0.006225  -0.005617   0.026752  -0.406445
    113      -0.006496  -0.004092   0.002957  -0.002257   0.016971  -0.207929
    114      -0.029367  -0.013802  -0.003327   0.003931  -0.015577  -0.042302
    115      -0.026327  -0.012525  -0.000932   0.001972   0.000978  -0.174675
    116      -0.030419  -0.013693  -0.002000   0.003215  -0.002152  -0.134833
    117      -0.033729  -0.012002  -0.008160   0.011384  -0.015088   0.282830
    118       0.002825  -0.000610   0.002281  -0.003038  -0.000080  -0.130801
    119      -0.012571  -0.004969  -0.002317   0.003202  -0.000625   0.029787
    120       0.059674   0.070734   0.019354   0.015282   0.462386   0.007694
    121      -0.015986  -0.005887   0.001559  -0.001584  -0.005538  -0.029348
    122       0.009270   0.005698   0.001724   0.001292   0.049566  -0.004309
    123       0.072162   0.016232  -0.010624  -0.012555  -0.263929   0.007768
    124      -0.002029   0.007688   0.003352   0.002432   0.093304  -0.003336
    125       0.007319   0.003591   0.000750  -0.000460  -0.003591   0.017210
                102        103        104        105        106        107    
      0       0.042524  -0.016510  -0.000032  -0.000707   0.001922   0.001615
      1       0.014746  -0.031006   0.001437   0.003084   0.000726  -0.001137
      2      -0.002716  -0.011552   0.000211   0.001712   0.000924   0.000118
      3      -0.002380  -0.003409   0.000182   0.000537  -0.005899   0.000159
      4      -0.005504   0.017520  -0.001283   0.001334  -0.004606  -0.000428
      5      -0.007661   0.003763  -0.000401   0.001836   0.001311  -0.003818
      6      -0.010972  -0.005968  -0.005472   0.016906  -0.062497  -0.014189
      7       0.004848  -0.006201   0.001276   0.000005   0.012510  -0.001147
      8       0.000447  -0.011900   0.000038   0.002765  -0.007715  -0.001645
      9       0.016900   0.045703   0.002174  -0.012711   0.019545   0.005998
     10       0.046143  -0.028375   0.003519  -0.013513  -0.018954   0.019711
     11       0.020749  -0.000282   0.003045  -0.012351   0.003110   0.015553
     12       0.004714   0.019167  -0.001128   0.000988  -0.004904  -0.000747
     13      -0.026782  -0.050239   0.000137   0.007163  -0.015567  -0.002563
     14       0.024475   0.036417   0.005353  -0.024717  -0.005131   0.037334
     15       0.019945   0.088789   0.013076  -0.073081   0.308434   0.069612
     16       0.001941   0.124785  -0.019501   0.018655  -0.160807  -0.027947
     17       0.003928   0.048535  -0.004104  -0.002938  -0.010201  -0.001026
     18       0.008377  -0.115787   0.025261  -0.041004   0.150325   0.057658
     19      -0.004696  -0.134320   0.009673  -0.004941  -0.005237   0.019983
     20       0.010572   0.098352  -0.004011  -0.001423   0.040761  -0.011124
     21       0.025988  -0.027900   0.005302   0.004881  -0.006440  -0.003402
     22      -0.022128  -0.122378   0.008335  -0.002987  -0.024814   0.019594
     23       0.001876  -0.093710   0.008912  -0.002276  -0.012362   0.013369
     24      -0.106900  -0.086213  -0.003413   0.028640  -0.081581  -0.026699
     25       0.032496  -0.183351   0.016493   0.017908   0.035338   0.000532
     26      -0.001876  -0.069915   0.004586   0.009684  -0.002021  -0.004568
     27       0.102804  -0.015758   0.003201   0.002810  -0.010941   0.002228
     28      -0.049527   0.064754  -0.004621  -0.013125   0.014466   0.002653
     29      -0.017046   0.026701  -0.001164  -0.003660   0.005819  -0.000130
     30      -0.399123   0.102656  -0.002176   0.005292  -0.002710  -0.018081
     31       0.179005  -0.000953   0.000568   0.000300   0.002942  -0.003498
     32      -0.121471   0.048137  -0.001071   0.005906  -0.002593  -0.007585
     33      -0.428222   0.170392  -0.007645  -0.019441  -0.003622   0.014883
     34      -0.242467   0.110873  -0.004348  -0.016529  -0.001225   0.009079
     35       0.241056  -0.009367   0.000821  -0.015365   0.006945   0.008701
     36      -0.013039  -0.012097   0.000107   0.002326   0.002395  -0.002536
     37      -0.041127   0.001351   0.000418   0.004219  -0.006979  -0.002677
     38      -0.025150  -0.003103  -0.000020   0.003180  -0.008344  -0.001200
     39       0.012639   0.019206  -0.000793  -0.003060   0.001522   0.003152
     40       0.006704  -0.000140   0.000045  -0.001395   0.004466   0.001880
     41      -0.001172   0.005332  -0.000474  -0.001153   0.003724   0.001357
     42      -0.217443   0.064706  -0.000983  -0.015699  -0.028596   0.029554
     43       0.334743  -0.116806   0.003343   0.000595   0.021541  -0.000776
     44      -0.009020  -0.001728  -0.000258   0.002871  -0.009580   0.003064
     45       0.007211  -0.010232   0.000512   0.004331  -0.016201   0.002152
     46       0.293464  -0.053401   0.003501   0.005680   0.004741  -0.003903
     47       0.428625  -0.097534   0.004676  -0.000026   0.046360  -0.006317
     48      -0.006276  -0.012243  -0.000251   0.003502  -0.025614  -0.004558
     49       0.004152  -0.006463   0.003521  -0.006471   0.037287   0.010243
     50       0.004306   0.003718   0.000348  -0.002636   0.003179   0.004914
     51       0.006647  -0.067619   0.004165  -0.000212   0.003273   0.002089
     52       0.002261   0.026500  -0.002570  -0.000869  -0.000165   0.007329
     53       0.003971  -0.044295   0.005361  -0.007620   0.013077   0.006459
     54      -0.046914  -0.026607   0.000817   0.009184   0.008065  -0.008086
     55      -0.009990   0.033414  -0.005585   0.019001  -0.017635  -0.032483
     56      -0.007223   0.008410  -0.001024   0.001349   0.001146  -0.001844
     57       0.034792   0.146349   0.000045  -0.041493   0.198649   0.053496
     58       0.014527   0.086986  -0.012020   0.008987  -0.152840  -0.027153
     59       0.009523   0.047815  -0.003561  -0.003905  -0.016347   0.000526
     60      -0.037951  -0.127659   0.004175   0.014318   0.026486  -0.006150
     61      -0.051281  -0.074485  -0.004798   0.035630  -0.019813  -0.050493
     62       0.007460   0.012964  -0.000317  -0.001479  -0.005409   0.000124
     63      -0.019391  -0.047695   0.004006   0.004997   0.047779  -0.017071
     64      -0.035666  -0.101552  -0.004889   0.029861  -0.141644  -0.021468
     65      -0.070716  -0.178008   0.001756   0.036306  -0.008705  -0.047203
     66       0.007267  -0.165798   0.001260   0.066279  -0.331242  -0.088262
     67      -0.014049  -0.058776   0.012253  -0.028000   0.145503   0.027390
     68      -0.003436  -0.041312   0.004266   0.000150   0.000833  -0.002899
     69       0.007520  -0.121895   0.007627   0.027567  -0.154142  -0.085538
     70      -0.033781  -0.150241   0.017859  -0.013968   0.232451   0.036217
     71      -0.009595  -0.065593   0.006962  -0.000554   0.049176   0.000798
     72      -0.016776   0.191288  -0.033378   0.022590   0.065041   0.060049
     73       0.040228   0.191145  -0.010511  -0.009109  -0.126905  -0.007948
     74       0.009696   0.086713  -0.007517  -0.001287  -0.030402   0.006477
     75      -0.001950   0.012924  -0.005126   0.003275  -0.007373   0.024740
     76       0.004376   0.030410   0.000053   0.009892  -0.014699  -0.048190
     77       0.001238   0.011884  -0.000819   0.004180  -0.006111  -0.014973
     78       0.000568   0.010926   0.003390  -0.176106  -0.104185   0.445023
     79      -0.002144  -0.031911  -0.001366  -0.108240  -0.122320   0.417041
     80      -0.000876  -0.010291  -0.000684  -0.054283  -0.048255   0.182220
     81       0.008294  -0.151193   0.036388  -0.108373   0.114679   0.016270
     82      -0.009477  -0.045208  -0.010305   0.010872   0.022623  -0.000846
     83      -0.001119  -0.034763  -0.000468  -0.011647   0.022285   0.001053
     84       0.003926   0.092581   0.018749   0.107591  -0.102915  -0.125114
     85       0.001838   0.035213   0.009860   0.015681   0.022718  -0.060490
     86       0.001088   0.026866   0.009608   0.022837  -0.006970  -0.037542
     87      -0.001972  -0.010180  -0.002866   0.102402   0.092145  -0.303594
     88      -0.001105  -0.002204  -0.000970   0.064787   0.068900  -0.215761
     89      -0.000106  -0.002128  -0.001447   0.031979   0.031040  -0.100120
     90      -0.011767  -0.058739  -0.119583   0.063046   0.061535   0.169963
     91       0.000218  -0.002655  -0.068148  -0.090784  -0.028516  -0.080368
     92      -0.003328  -0.022033  -0.086866  -0.038980   0.000965   0.002897
     93      -0.000075   0.033313   0.198368  -0.251759  -0.050851  -0.178902
     94       0.006414   0.009960   0.002898   0.163432   0.016521   0.080901
     95       0.004128   0.020820   0.077781   0.017772  -0.008706  -0.006176
     96       0.006244   0.016050  -0.023065  -0.148340  -0.023160  -0.127420
     97      -0.007423  -0.013746   0.098135   0.169037   0.024123   0.140547
     98      -0.003273  -0.005354   0.060983   0.066724   0.009194   0.050230
     99       0.003336   0.006228  -0.040949   0.125605   0.009988   0.094487
    100       0.003633  -0.000449  -0.075037  -0.081239  -0.006637  -0.056746
    101       0.003739   0.002148  -0.068608  -0.011766  -0.000126  -0.005146
    102      -0.008689   0.000762   0.132293  -0.068321  -0.006514  -0.040095
    103       0.000591   0.021421   0.176578   0.083566  -0.001897   0.059775
    104      -0.002834   0.015333   0.171478   0.031319  -0.003788   0.026466
    105       0.009588   0.002682  -0.090761   0.206540   0.023828   0.107652
    106      -0.012470  -0.033575  -0.099162  -0.241951  -0.015196  -0.138852
    107      -0.005314  -0.022296  -0.105187  -0.089750  -0.000466  -0.057790
    108      -0.029828  -0.118395   0.174737   0.189834   0.059243   0.152282
    109       0.045258   0.168127  -0.194921  -0.310016  -0.084901  -0.269688
    110       0.023875   0.107704  -0.094542  -0.172334  -0.055969  -0.149641
    111      -0.016757  -0.059114  -0.226578  -0.100535   0.015071  -0.047627
    112       0.037094   0.081997   0.112089   0.351189   0.007809   0.143780
    113       0.020713   0.032684   0.006308   0.209228   0.005857   0.102913
    114       0.007854  -0.038961  -0.398652  -0.092200   0.018059  -0.100386
    115       0.019107  -0.015733  -0.358991   0.059590   0.020745   0.001681
    116       0.016040  -0.023739  -0.389439   0.023341   0.023546  -0.050248
    117      -0.009108  -0.087748  -0.417347   0.395213   0.110564   0.159422
    118       0.009600   0.037872   0.130969   0.029074  -0.024342   0.040936
    119       0.002627  -0.004321  -0.050723   0.182653   0.037824   0.021206
    120      -0.030833   0.262042  -0.003834  -0.106105   0.569684   0.122936
    121      -0.009975  -0.103668   0.013710  -0.009515   0.060543   0.001195
    122      -0.005552  -0.003842   0.003928  -0.016998   0.076719   0.030525
    123       0.026022   0.534665  -0.116888   0.178252  -0.265100  -0.047838
    124      -0.010353  -0.105755  -0.000003  -0.016362   0.050969  -0.007832
    125      -0.001275   0.023731  -0.006335   0.019108  -0.015243   0.023642
                108        109        110        111        112        113    
      0      -0.018500   0.024646   0.000138   0.000189   0.005814  -0.002626
      1      -0.010040   0.016792  -0.000269  -0.000387  -0.004651   0.001190
      2       0.038354  -0.054512   0.000484   0.000712  -0.000834   0.001283
      3       0.001688  -0.003016   0.003338   0.002570  -0.010979   0.006706
      4       0.000856  -0.001716   0.004854   0.003658   0.011497  -0.006853
      5      -0.002330   0.003828  -0.009613  -0.007116  -0.056924   0.034050
      6       0.000379  -0.000556  -0.020333  -0.016137   0.001360  -0.000796
      7       0.000371  -0.001049  -0.038853  -0.030998   0.012564  -0.008072
      8      -0.000719   0.000998   0.036950   0.029446   0.004288  -0.003034
      9      -0.010839   0.018111  -0.041344  -0.030721  -0.221832   0.132616
     10      -0.015240   0.024613  -0.052545  -0.039116  -0.280499   0.167599
     11       0.034521  -0.055476   0.123624   0.092438   0.645808  -0.386037
     12      -0.009323   0.015019  -0.003906  -0.004781   0.345959  -0.208471
     13      -0.002102   0.002113  -0.003609  -0.003425   0.142574  -0.086312
     14      -0.001847   0.001363  -0.002925  -0.002427   0.029098  -0.017770
     15       0.000207   0.000207  -0.000696  -0.000513   0.000327  -0.000129
     16      -0.000239  -0.000672  -0.000151  -0.000343   0.000250  -0.000133
     17      -0.000142  -0.000280   0.000053   0.000014   0.000228  -0.000118
     18      -0.000167  -0.000559  -0.027449  -0.021888   0.016646  -0.011047
     19      -0.000478   0.004788   0.131580   0.104666  -0.115728   0.075232
     20      -0.001826   0.007172   0.153180   0.122017  -0.123364   0.080064
     21      -0.004952   0.007526   0.278268   0.221758  -0.031519   0.019086
     22      -0.004385   0.007987   0.332340   0.265112  -0.037338   0.022838
     23       0.009089  -0.016562  -0.600470  -0.478308   0.073840  -0.045162
     24      -0.000190  -0.002449  -0.000492   0.000566  -0.000200   0.000165
     25       0.000555   0.001827   0.000303   0.000714  -0.000306  -0.000159
     26       0.000185   0.000107   0.000064   0.000228  -0.000073  -0.000074
     27      -0.002078   0.004198   0.000181  -0.000064   0.000328  -0.000282
     28      -0.003808  -0.002095   0.000063  -0.000029   0.000428   0.000174
     29      -0.001505  -0.000150   0.000117  -0.000015   0.000161  -0.000202
     30       0.204743  -0.293758   0.003280   0.003256  -0.013171   0.008405
     31       0.204709  -0.288086   0.002037   0.002324  -0.016051   0.009761
     32      -0.495090   0.689368  -0.006126  -0.008150   0.036805  -0.023745
     33       0.043177  -0.041963  -0.002058  -0.003070  -0.054019   0.019357
     34      -0.066573   0.065494   0.001929   0.002913   0.069498  -0.024360
     35       0.036463  -0.039950  -0.002260  -0.002238  -0.030097   0.011204
     36       0.012151   0.007639  -0.000312  -0.000326  -0.003990  -0.004602
     37       0.004559   0.003714  -0.000041   0.000453   0.002510   0.002823
     38      -0.060391  -0.044542   0.000621  -0.000698  -0.000012   0.001977
     39      -0.000663  -0.000448  -0.000094   0.000137  -0.002142  -0.003541
     40       0.000462   0.000736  -0.000123   0.000193  -0.019659  -0.032630
     41       0.004027   0.003060  -0.006876   0.008132   0.030871   0.051959
     42      -0.065480  -0.048039   0.001175  -0.001243   0.000850   0.002622
     43      -0.074260  -0.048510   0.000859  -0.001344   0.002624   0.006109
     44       0.795019   0.572304  -0.007812   0.007629  -0.017707  -0.046028
     45      -0.072038  -0.038047   0.002512   0.004989   0.044482   0.051369
     46       0.054338   0.030191   0.000001  -0.004299  -0.030624  -0.038335
     47      -0.049579  -0.028244   0.000357   0.002497   0.020101   0.024018
     48       0.000284   0.000102   0.010534  -0.013268   0.004621   0.008061
     49       0.000238   0.000097   0.004140  -0.005185   0.002197   0.003769
     50       0.001323   0.000855   0.045491  -0.057305   0.001270   0.002866
     51       0.001884   0.002082   0.002073  -0.002814   0.003978   0.006694
     52      -0.009920  -0.009346   0.012517  -0.016490   0.170214   0.281152
     53      -0.003697  -0.003653   0.004270  -0.005885   0.091761   0.151811
     54       0.001658   0.000684  -0.004248   0.005176   0.021779   0.036287
     55       0.007884   0.005347  -0.011456   0.013562   0.060654   0.101585
     56      -0.054339  -0.038231   0.080437  -0.095438  -0.459131  -0.769690
     57      -0.000053   0.000694  -0.000040   0.000179   0.000144   0.000127
     58       0.000050   0.000131   0.000763  -0.001385   0.000271   0.000450
     59       0.000051   0.000052   0.000532  -0.000817   0.000057   0.000142
     60       0.000480   0.000511  -0.029789   0.037426  -0.001302  -0.002502
     61      -0.001056  -0.000320  -0.015966   0.020204   0.000184   0.000146
     62      -0.016356  -0.009411  -0.602905   0.759115  -0.040458  -0.077820
     63      -0.003567  -0.002009  -0.093630   0.118013  -0.054671  -0.095012
     64      -0.002523  -0.001446  -0.040162   0.050297  -0.025545  -0.044051
     65       0.002698   0.001804   0.050812  -0.064105   0.023442   0.041037
     66      -0.000167   0.000143   0.000809   0.000954  -0.000417   0.000272
     67       0.000049   0.000883  -0.000926   0.000921  -0.000618   0.001065
     68       0.000015   0.000236  -0.000142   0.000455  -0.000305   0.000403
     69       0.000032   0.000177   0.000808  -0.001067   0.000345   0.000067
     70      -0.000189  -0.000424  -0.000197   0.000840  -0.000160  -0.000236
     71      -0.000050  -0.000048   0.000154   0.000105   0.000034  -0.000060
     72       0.000014  -0.000483  -0.000507  -0.000620   0.000255  -0.000194
     73       0.000166   0.000482   0.000112  -0.000596   0.000214   0.000134
     74       0.000019   0.000088   0.000024  -0.000286   0.000028   0.000038
     75       0.000020  -0.000076  -0.000354   0.000143   0.000025  -0.000027
     76       0.000041   0.000009  -0.000110   0.000050  -0.000144  -0.000031
     77       0.000007  -0.000013  -0.000076  -0.000008  -0.000040  -0.000014
     78      -0.000034  -0.000071  -0.000100   0.000217  -0.000665   0.000191
     79       0.000017   0.000154  -0.000298   0.000277  -0.000253   0.000121
     80      -0.000002   0.000061  -0.000108   0.000104  -0.000175   0.000051
     81       0.000058   0.000528   0.000203  -0.000024  -0.000002   0.000111
     82       0.000022  -0.000114   0.000354   0.000153   0.000349  -0.000198
     83       0.000005  -0.000012   0.000118   0.000062   0.000132  -0.000037
     84       0.000032   0.000028  -0.000178  -0.000026   0.000063  -0.000089
     85      -0.000077  -0.000216   0.000081  -0.000129   0.000058  -0.000070
     86      -0.000007  -0.000063  -0.000039  -0.000049   0.000014  -0.000008
     87       0.000013   0.000123   0.000039  -0.000152   0.000226   0.000005
     88       0.000020   0.000084   0.000056  -0.000121   0.000172  -0.000014
     89      -0.000011  -0.000050   0.000079  -0.000045   0.000075  -0.000067
     90      -0.000045  -0.000113   0.000101   0.000004  -0.000072   0.000079
     91       0.000076   0.000266  -0.000038   0.000060   0.000014  -0.000045
     92       0.000012   0.000066   0.000008   0.000030  -0.000004  -0.000014
     93       0.000035   0.000142  -0.000088   0.000037  -0.000003  -0.000001
     94       0.000035  -0.000058  -0.000023   0.000075   0.000031   0.000023
     95       0.000037   0.000062  -0.000067   0.000044   0.000019   0.000028
     96      -0.000036  -0.000135   0.000157  -0.000052   0.000237  -0.000261
     97      -0.000040  -0.000195   0.000104  -0.000065   0.000044  -0.000033
     98      -0.000022  -0.000088   0.000107  -0.000022   0.000142  -0.000119
     99      -0.000009  -0.000029   0.000023  -0.000016  -0.000020   0.000012
    100      -0.000012   0.000000   0.000020  -0.000020   0.000028  -0.000048
    101      -0.000004  -0.000003  -0.000003   0.000007   0.000006   0.000016
    102       0.000035  -0.000035   0.000057  -0.000012  -0.000003   0.000019
    103      -0.000051  -0.000054  -0.000052   0.000003  -0.000032   0.000016
    104      -0.000022  -0.000080  -0.000004   0.000018  -0.000022   0.000025
    105       0.000032  -0.000037  -0.000025  -0.000030  -0.000010   0.000104
    106       0.000059   0.000174  -0.000032   0.000004   0.000028  -0.000022
    107       0.000057   0.000136  -0.000060  -0.000019   0.000005   0.000053
    108       0.000093   0.000245  -0.001567   0.000243  -0.002518   0.002586
    109      -0.000004   0.000326  -0.000531   0.000065  -0.000853   0.000892
    110       0.000081   0.000429  -0.001152   0.000181  -0.001664   0.001797
    111      -0.000351   0.000071   0.000426   0.000482   0.000124  -0.000840
    112      -0.000104  -0.000028   0.000130   0.000100   0.000031  -0.000261
    113      -0.000243  -0.000126   0.000402   0.000363   0.000130  -0.000680
    114      -0.000185   0.000722  -0.000909   0.000206  -0.000137   0.000200
    115       0.000113  -0.000504   0.000696  -0.000254   0.000084  -0.000064
    116       0.000087   0.000123   0.000149  -0.000178   0.000021   0.000096
    117      -0.000065  -0.000128  -0.000021   0.000012   0.000160  -0.000134
    118      -0.000304   0.000004   0.000299  -0.000412  -0.000482  -0.000100
    119      -0.000193   0.000073   0.000249  -0.000543  -0.000329  -0.000097
    120      -0.000054  -0.000644  -0.000306  -0.001491   0.000402  -0.000983
    121       0.000354  -0.006573   0.004450  -0.012249   0.005358  -0.010229
    122       0.000145  -0.003094   0.002175  -0.004357   0.002814  -0.004504
    123      -0.000015   0.000212  -0.000260   0.000074  -0.000138   0.000219
    124      -0.001119  -0.005762  -0.001915  -0.001700  -0.002681   0.000444
    125      -0.000378  -0.001415  -0.000266  -0.000355  -0.000573  -0.000024
                114        115        116        117        118        119    
      0       0.007068  -0.040584  -0.004138   0.001531  -0.014440   0.002843
      1      -0.009896   0.061735   0.006152  -0.007121   0.018600  -0.003423
      2       0.005073  -0.029640  -0.002855   0.006345  -0.007413   0.001387
      3      -0.008103  -0.001826  -0.000830  -0.074712  -0.023356   0.004573
      4      -0.000505   0.001360  -0.000331  -0.039019  -0.011985   0.002257
      5      -0.009630  -0.008702  -0.000265   0.022534   0.005504  -0.000805
      6       0.016096   0.002779   0.000212  -0.003970  -0.000412   0.000098
      7      -0.044705  -0.006566  -0.000483  -0.001217  -0.001772   0.000342
      8      -0.071730  -0.010309  -0.000614   0.009981   0.000371  -0.000129
      9      -0.030634  -0.028660  -0.000398   0.112895   0.030419  -0.005008
     10      -0.040815  -0.037223  -0.000566   0.154805   0.041723  -0.006919
     11       0.092699   0.089208   0.001625  -0.370457  -0.099364   0.016444
     12       0.124608   0.051648   0.010537   0.776873   0.251294  -0.050260
     13       0.049191   0.022227   0.004892   0.312812   0.102773  -0.020535
     14       0.014072   0.007595   0.001519   0.095079   0.032138  -0.006455
     15       0.000832   0.000184  -0.000054   0.000514   0.000225  -0.000046
     16      -0.000103   0.000046   0.000053   0.000135  -0.000114  -0.000027
     17      -0.000402   0.000026   0.000040   0.000215  -0.000055  -0.000025
     18      -0.102814  -0.015427  -0.000913   0.005869  -0.001452   0.000246
     19       0.650157   0.090516   0.005542  -0.036944   0.009239  -0.001724
     20       0.661386   0.091700   0.005600  -0.037824   0.009366  -0.001639
     21      -0.096681  -0.015098  -0.000882   0.036695   0.006378  -0.001605
     22      -0.129290  -0.021606  -0.001188   0.048858   0.007960  -0.001940
     23       0.200595   0.033602   0.001907  -0.081563  -0.013154   0.003069
     24      -0.000111   0.000641   0.000480  -0.000133   0.000967  -0.000345
     25       0.000326  -0.000062   0.000019   0.000227  -0.000697   0.000310
     26      -0.000065  -0.000264   0.000208   0.000299  -0.000606   0.000013
     27       0.000344  -0.000853  -0.000269   0.000709  -0.000944   0.000432
     28      -0.000062   0.000155   0.000354  -0.000004   0.001013   0.000312
     29       0.000011   0.000077   0.000032   0.000056   0.000267   0.000209
     30       0.005941  -0.046158  -0.003382   0.020605  -0.003380  -0.000201
     31       0.002777  -0.023963  -0.001133   0.016086   0.002799  -0.001032
     32      -0.009179   0.087655   0.005918  -0.046772   0.002671   0.000111
     33      -0.091045   0.524056   0.054963  -0.049278   0.174164  -0.032475
     34       0.119513  -0.702125  -0.072305   0.065477  -0.228508   0.042628
     35      -0.047031   0.268361   0.028150  -0.026217   0.087396  -0.016330
     36      -0.001136   0.021213  -0.009954   0.018455  -0.056443   0.008829
     37       0.000719  -0.014201   0.007158  -0.012271   0.037752  -0.005708
     38      -0.000763   0.013794  -0.005850   0.010230  -0.031232   0.000354
     39       0.000034  -0.000179  -0.000253  -0.000159   0.000516  -0.000465
     40       0.000443  -0.002427  -0.011956  -0.002425  -0.004524  -0.063959
     41      -0.000702   0.002049  -0.000940   0.000671  -0.013964  -0.061987
     42      -0.000407   0.009598  -0.003222   0.006879  -0.021237  -0.002562
     43      -0.000281   0.002578  -0.000105   0.000598  -0.003303  -0.003963
     44       0.002858  -0.049719   0.013508  -0.027749   0.080925   0.028241
     45       0.012909  -0.254873   0.128241  -0.222895   0.683080  -0.100557
     46      -0.007887   0.164080  -0.084876   0.144351  -0.442757   0.064783
     47       0.005846  -0.112132   0.055321  -0.096409   0.295936  -0.042081
     48      -0.000265   0.002750  -0.067151  -0.003176   0.013267   0.004766
     49      -0.000113   0.001388  -0.028996  -0.001209   0.005193   0.001976
     50       0.000015  -0.001938   0.040642   0.001934  -0.008754  -0.009525
     51      -0.000106   0.000489   0.001890   0.001079   0.000367   0.021534
     52      -0.003790   0.020884   0.131823   0.026066   0.073518   0.818859
     53      -0.001839   0.010122   0.064720   0.012483   0.037184   0.402361
     54      -0.000509   0.001893   0.001040   0.001092  -0.006171  -0.017268
     55      -0.001348   0.004685   0.006903   0.002932  -0.020044  -0.060110
     56       0.010083  -0.032916  -0.048517  -0.019390   0.124711   0.344193
     57       0.000199   0.000010  -0.000278  -0.000073   0.000247  -0.000071
     58      -0.000102   0.000078   0.000071  -0.000058  -0.000126   0.000644
     59       0.000029  -0.000059   0.000242   0.000008  -0.000097   0.000124
     60      -0.000040   0.000762  -0.023639  -0.001214   0.005904   0.007895
     61      -0.000240   0.000511  -0.011297  -0.000500   0.002182   0.002388
     62       0.000733   0.007534  -0.160884  -0.008828   0.044091   0.081738
     63       0.003049  -0.035909   0.821146   0.036035  -0.155862  -0.068547
     64       0.001302  -0.015979   0.349146   0.015331  -0.065725  -0.029455
     65      -0.001283   0.014364  -0.330978  -0.014536   0.062984   0.028155
     66       0.000314  -0.000072   0.000159   0.000085  -0.000202   0.000088
     67       0.002050   0.000092   0.000978   0.000094  -0.000465  -0.000107
     68       0.000932   0.000082   0.000336  -0.000009  -0.000127  -0.000040
     69      -0.000030   0.000044  -0.000544  -0.000023  -0.000003   0.000207
     70       0.000118   0.000084  -0.000278   0.000047   0.000411  -0.000187
     71       0.000034   0.000054  -0.000455  -0.000029   0.000219   0.000041
     72      -0.000211   0.000117  -0.000101  -0.000100   0.000377  -0.000126
     73       0.000050  -0.000067   0.000025  -0.000086  -0.000250   0.000207
     74       0.000058  -0.000010   0.000166  -0.000007  -0.000082  -0.000010
     75      -0.000086  -0.000039   0.000012  -0.000033  -0.000024   0.000110
     76      -0.000016  -0.000039   0.000426   0.000012  -0.000099  -0.000112
     77      -0.000055   0.000006  -0.000028  -0.000008   0.000011  -0.000005
     78      -0.000023  -0.000167   0.000068   0.000065  -0.000232  -0.000661
     79      -0.000077  -0.000143   0.000078   0.000057  -0.000239  -0.000193
     80      -0.000019  -0.000046   0.000015   0.000018  -0.000089  -0.000130
     81       0.000002  -0.000115   0.000121   0.000128  -0.000443   0.000226
     82       0.000137   0.000071  -0.000066  -0.000262   0.000361   0.000219
     83       0.000040   0.000009   0.000012  -0.000059   0.000043   0.000126
     84      -0.000038   0.000109  -0.000151  -0.000064   0.000349  -0.000101
     85       0.000007   0.000057   0.000037  -0.000063   0.000120  -0.000035
     86      -0.000002   0.000030  -0.000032   0.000007   0.000063  -0.000021
     87       0.000039   0.000061   0.000001  -0.000023   0.000027   0.000272
     88       0.000038   0.000047  -0.000001  -0.000002   0.000033   0.000188
     89       0.000028   0.000057  -0.000005  -0.000016   0.000058   0.000097
     90       0.000011  -0.000050   0.000072   0.000059  -0.000188   0.000022
     91      -0.000038   0.000034  -0.000026   0.000016   0.000125  -0.000028
     92      -0.000003  -0.000007   0.000035  -0.000016  -0.000002  -0.000015
     93       0.000005   0.000017  -0.000013   0.000000   0.000074  -0.000027
     94       0.000088  -0.000029   0.000139  -0.000077  -0.000145   0.000188
     95       0.000057  -0.000039   0.000085  -0.000016  -0.000106   0.000123
     96       0.000030   0.000162  -0.000072  -0.000067   0.000443   0.000020
     97       0.000002   0.000019  -0.000016   0.000024   0.000062   0.000015
     98       0.000010   0.000075  -0.000017  -0.000025   0.000220   0.000012
     99       0.000008  -0.000004   0.000021   0.000004  -0.000040   0.000011
    100      -0.000000   0.000002  -0.000021   0.000005   0.000033   0.000000
    101       0.000001  -0.000008   0.000022   0.000009  -0.000022  -0.000001
    102       0.000088  -0.000049  -0.000167  -0.000093  -0.000061   0.000069
    103      -0.000071   0.000003   0.000130   0.000094  -0.000004  -0.000073
    104      -0.000007  -0.000005   0.000044   0.000035  -0.000021  -0.000035
    105      -0.000024  -0.000016  -0.000042  -0.000080  -0.000182   0.000142
    106      -0.000023   0.000012  -0.000049  -0.000049   0.000031   0.000022
    107      -0.000025  -0.000026  -0.000070  -0.000064  -0.000086   0.000075
    108      -0.000046  -0.001442   0.000486   0.001020  -0.004448  -0.000404
    109      -0.000102  -0.000524   0.000135   0.000365  -0.001507  -0.000088
    110      -0.000130  -0.000969   0.000350   0.000682  -0.002911  -0.000233
    111       0.000445  -0.000040   0.000865   0.000915   0.001354  -0.001147
    112       0.000147   0.000045   0.000219   0.000223   0.000384  -0.000315
    113       0.000257   0.000030   0.000563   0.000472   0.000879  -0.000674
    114      -0.001182   0.000199   0.001729   0.001042   0.000285  -0.000675
    115       0.000925  -0.000180  -0.001450  -0.000781  -0.000300   0.000570
    116       0.000208  -0.000087  -0.000475  -0.000123  -0.000089   0.000109
    117      -0.000119   0.000042   0.000090  -0.000061   0.000150   0.000026
    118      -0.000845   0.000388  -0.001286   0.000497   0.001182  -0.002013
    119      -0.000656   0.000391  -0.001207   0.000291   0.001033  -0.001456
    120      -0.003117  -0.000332  -0.000807  -0.000088   0.000317   0.000035
    121      -0.022074  -0.001318  -0.010189  -0.001115   0.004666   0.001046
    122      -0.009258  -0.000557  -0.003687  -0.000695   0.001988   0.000355
    123      -0.000002  -0.000058   0.000141   0.000043  -0.000281  -0.000025
    124      -0.000852   0.000386   0.000387   0.003383  -0.002206  -0.002692
    125      -0.000390   0.000003   0.000209   0.000810  -0.000461  -0.000594
                120        121        122        123        124        125    
      0      -0.000060  -0.000261   0.000138   0.000049  -0.000366  -0.000144
      1       0.000055   0.000228  -0.000037  -0.000010   0.000223   0.000062
      2      -0.000049   0.000012   0.000174   0.000057  -0.000221   0.000037
      3      -0.000033  -0.000136  -0.000029   0.000110   0.000136  -0.000070
      4      -0.000052   0.000018   0.000121   0.000083   0.000094  -0.000061
      5       0.000064  -0.000273  -0.000564  -0.000119  -0.000279   0.000073
      6      -0.000013  -0.000012   0.000191   0.000034  -0.000114  -0.000024
      7       0.000114   0.000014   0.001422   0.000257  -0.000333   0.000082
      8       0.000082   0.000000   0.001646   0.000232  -0.000201   0.000066
      9       0.000227  -0.000921  -0.002408  -0.000503  -0.000950   0.000273
     10       0.000365  -0.001202  -0.002664  -0.000677  -0.001600   0.000874
     11      -0.001161   0.002677   0.006480   0.001492   0.002986  -0.001200
     12       0.000449   0.002792   0.001534  -0.001205  -0.000420   0.000798
     13       0.000083   0.001021   0.001255  -0.000351  -0.000644   0.000295
     14       0.000143   0.000300  -0.000222  -0.000188  -0.000406   0.000364
     15       0.000020  -0.000125   0.001330   0.000182   0.000205  -0.000046
     16       0.000017   0.000042   0.000109   0.000021   0.000011   0.000030
     17      -0.000005  -0.000001   0.000254   0.000053   0.000036  -0.000005
     18       0.000197  -0.000088   0.000335   0.000016  -0.000552   0.000221
     19      -0.001132   0.000176  -0.017638  -0.003043   0.003301  -0.000679
     20      -0.001282   0.000098  -0.018435  -0.003090   0.003693  -0.001000
     21      -0.000175   0.000090   0.000281  -0.000167   0.000460   0.000113
     22      -0.000068   0.000161   0.000732  -0.000285   0.000622   0.000254
     23       0.000210  -0.000380  -0.001402   0.000289  -0.001718   0.000026
     24       0.000005   0.000091  -0.000246  -0.000046  -0.000031   0.000027
     25      -0.000059   0.000035  -0.000962  -0.000144  -0.000017  -0.000025
     26      -0.000017  -0.000007  -0.000312  -0.000047   0.000007  -0.000011
     27      -0.000046   0.000034   0.000135   0.000039  -0.000002   0.000010
     28       0.000036  -0.000055   0.000163  -0.000009  -0.000031  -0.000055
     29      -0.000005  -0.000018   0.000048   0.000006   0.000009  -0.000009
     30      -0.000413  -0.000194   0.001980   0.000672  -0.002404  -0.000138
     31      -0.000355   0.000034   0.001844   0.000618  -0.002034  -0.000059
     32       0.000582  -0.000684  -0.004128  -0.001114   0.003816  -0.000276
     33       0.000254   0.001467   0.001933   0.000231  -0.000659   0.000594
     34      -0.000462  -0.002421  -0.002178  -0.000371  -0.000085  -0.000777
     35      -0.000017   0.000771   0.001136   0.000079   0.000058   0.000160
     36       0.000011  -0.000251  -0.000311   0.000007  -0.000141  -0.000049
     37      -0.000001   0.000158  -0.000159  -0.000039   0.000358   0.000033
     38      -0.000029  -0.000096   0.000100   0.000070  -0.000561   0.000032
     39       0.000002   0.000027   0.000033  -0.000007   0.000016   0.000012
     40       0.000001   0.000058   0.000281  -0.000033  -0.000220   0.000215
     41       0.000082  -0.000142  -0.000622  -0.000152  -0.000125   0.000142
     42      -0.000006  -0.000041   0.000331   0.000009  -0.000711   0.000204
     43       0.000062   0.000316   0.000634   0.000019  -0.000161   0.000060
     44       0.000358  -0.000919  -0.002750  -0.000502   0.004559  -0.000820
     45      -0.000152   0.003017   0.002983  -0.000160   0.001892   0.000329
     46      -0.000017  -0.002110  -0.001366   0.000423  -0.001756  -0.000617
     47      -0.000020   0.001518   0.001429  -0.000154   0.001157   0.000332
     48      -0.000145   0.000063   0.000933   0.000281   0.000039   0.000103
     49      -0.000062   0.000017   0.000336   0.000120   0.000001   0.000069
     50       0.000034   0.000051   0.000428   0.000036  -0.000103   0.000041
     51      -0.000002  -0.000031  -0.000031   0.000016   0.000026  -0.000097
     52      -0.000118  -0.000428  -0.001544   0.000755   0.002271  -0.002574
     53       0.000018  -0.000056  -0.001255   0.000271   0.001876  -0.001320
     54       0.000032  -0.000087  -0.000520  -0.000072   0.000005  -0.000021
     55       0.000083  -0.000232  -0.001340  -0.000154   0.000351  -0.000155
     56      -0.000744   0.001904   0.009386   0.001520  -0.000782  -0.000084
     57       0.000010  -0.000149   0.000119   0.000054   0.000542  -0.000062
     58       0.000007   0.000110  -0.000460  -0.000079  -0.000067   0.000079
     59       0.000026   0.000032  -0.000127  -0.000038   0.000061  -0.000005
     60       0.000010  -0.000097  -0.000374  -0.000151  -0.000293   0.000168
     61      -0.000041   0.000080  -0.000054   0.000096   0.000236  -0.000164
     62       0.000483  -0.000751  -0.010343  -0.001948   0.001599  -0.000651
     63       0.001694  -0.000833  -0.011291  -0.003376   0.000227  -0.001661
     64       0.000747  -0.000318  -0.004294  -0.001434  -0.000228  -0.000484
     65      -0.000711   0.000422   0.004556   0.001444   0.000293   0.000379
     66       0.000018  -0.000033   0.005746   0.000918  -0.001316   0.000150
     67       0.000321  -0.001606   0.079291   0.012651  -0.011844   0.000736
     68       0.000118  -0.000506   0.025950   0.004129  -0.003957   0.000262
     69      -0.000042  -0.000038  -0.000549  -0.000020  -0.000265   0.000148
     70       0.000004  -0.000306  -0.000100  -0.000031   0.001245  -0.000240
     71      -0.000014  -0.000164  -0.000103  -0.000010   0.000458  -0.000032
     72      -0.000040   0.000158  -0.001320  -0.000086  -0.000461  -0.000048
     73      -0.000005   0.000192  -0.000203  -0.000042  -0.000324   0.000167
     74       0.000008   0.000092  -0.000526  -0.000071   0.000015   0.000001
     75      -0.000022   0.000003   0.000065  -0.000051  -0.000046   0.000001
     76       0.000077   0.000003  -0.000214  -0.000020   0.000006  -0.000000
     77       0.000057   0.000042  -0.000012  -0.000010  -0.000047   0.000005
     78       0.000046   0.000273  -0.000351  -0.000179   0.000237  -0.000314
     79      -0.000323  -0.000138   0.000269  -0.000198   0.000735  -0.000568
     80      -0.000097  -0.000068   0.000058  -0.000082   0.000367  -0.000286
     81      -0.000021   0.001155  -0.000883   0.000160  -0.006532   0.000977
     82      -0.001684   0.016922  -0.011760   0.003247  -0.078775   0.008773
     83      -0.000528   0.004829  -0.003091   0.000930  -0.021106   0.002291
     84      -0.000017  -0.000946   0.000169  -0.000125   0.001682  -0.000189
     85       0.000311  -0.000387  -0.000199  -0.000105   0.000249   0.000545
     86       0.000129  -0.000325  -0.000034  -0.000047   0.000339   0.000228
     87       0.000093  -0.000035   0.000083   0.000021  -0.000040  -0.000377
     88       0.000115  -0.000061  -0.000010   0.000153   0.000089   0.001002
     89       0.000058   0.000024   0.000015   0.000030  -0.000066  -0.000030
     90       0.000397  -0.000885  -0.000102   0.000678  -0.000317  -0.001340
     91      -0.000025   0.001333  -0.000113   0.000338  -0.000106  -0.000214
     92       0.000130   0.000541  -0.000141   0.000539  -0.000205  -0.000790
     93      -0.000281   0.000394  -0.000358   0.002201   0.000592   0.003247
     94       0.002124   0.001315   0.000360   0.001829   0.008245   0.068429
     95       0.001269   0.001024   0.000149   0.002216   0.006200   0.050981
     96       0.000542  -0.065276  -0.001759  -0.010382  -0.012938   0.002258
     97       0.001525  -0.024350  -0.000475  -0.004156  -0.005199   0.000929
     98       0.001424  -0.044214  -0.001150  -0.007263  -0.009198   0.001484
     99       0.001227  -0.001126  -0.000109   0.000315  -0.000203   0.000292
    100       0.000208   0.000574  -0.000039   0.000109   0.000127  -0.000337
    101       0.000551  -0.000013  -0.000069   0.000178   0.000028  -0.000053
    102       0.063403   0.007260   0.002536  -0.016826  -0.000804  -0.000953
    103      -0.051560  -0.004513  -0.002225   0.015671   0.000791   0.000104
    104      -0.011492  -0.000414  -0.000600   0.004493   0.000258  -0.000382
    105      -0.018987   0.011380   0.011240  -0.069579  -0.000864   0.006275
    106      -0.002822   0.002729   0.002802  -0.017795  -0.000485  -0.000635
    107      -0.009419   0.006424   0.006371  -0.039743  -0.000689   0.001936
    108      -0.028528   0.774967   0.020227   0.132203   0.163338  -0.035693
    109      -0.009567   0.262368   0.006421   0.044301   0.053449  -0.011302
    110      -0.018055   0.504052   0.012543   0.085159   0.101425  -0.021404
    111       0.226359  -0.126930  -0.127445   0.795051   0.013964  -0.048317
    112       0.051953  -0.032855  -0.031883   0.198639   0.003521  -0.010946
    113       0.125509  -0.073863  -0.072324   0.450554   0.007427  -0.025651
    114      -0.751284  -0.059473  -0.026829   0.194210   0.016124   0.014257
    115       0.584584   0.047894   0.021550  -0.154750  -0.011294  -0.009855
    116       0.119244   0.010167   0.004537  -0.033664  -0.001602  -0.001713
    117      -0.000875  -0.001448   0.000625  -0.004793  -0.005478  -0.040249
    118      -0.025674  -0.008285  -0.000126  -0.042404  -0.093449  -0.795499
    119      -0.019539  -0.007287  -0.000126  -0.031423  -0.068845  -0.583700
    120      -0.000292   0.001082  -0.070986  -0.011329   0.012535  -0.001046
    121      -0.003731   0.019620  -0.922437  -0.147158   0.138421  -0.008304
    122      -0.001345   0.006166  -0.299626  -0.047675   0.043999  -0.002523
    123       0.000940  -0.013847   0.010039  -0.001986   0.053792  -0.006581
    124       0.017822  -0.193283   0.141075  -0.035753   0.924082  -0.106025
    125       0.004744  -0.049089   0.038837  -0.009058   0.246152  -0.027682


-----------
IR SPECTRUM
-----------

 Mode   freq       eps      Int      T**2         TX        TY        TZ
       cm**-1   L/(mol*cm) km/mol    a.u.
----------------------------------------------------------------------------
  6:     21.95   0.000143    0.72  0.002028  ( 0.024702 -0.035137 -0.013521)
  7:     30.67   0.000554    2.80  0.005636  ( 0.005411  0.045130 -0.059751)
  8:     56.84   0.001749    8.84  0.009605  (-0.020986  0.048970 -0.082258)
  9:     73.52   0.000295    1.49  0.001251  ( 0.019429 -0.025628  0.014727)
 10:     78.79   0.000068    0.35  0.000271  (-0.016316  0.000151 -0.002176)
 11:     98.66   0.000449    2.27  0.001420  ( 0.017539 -0.033315  0.001436)
 12:    120.67   0.001060    5.36  0.002742  (-0.003238  0.020838 -0.047933)
 13:    138.25   0.001562    7.89  0.003526  (-0.037901  0.030641 -0.033925)
 14:    160.59   0.000924    4.67  0.001795  (-0.031177  0.024332 -0.015197)
 15:    193.30   0.000327    1.65  0.000529  (-0.022818  0.002177 -0.001799)
 16:    215.52   0.000116    0.59  0.000168  ( 0.007384 -0.005948  0.008835)
 17:    251.48   0.001489    7.53  0.001848  ( 0.028638 -0.029869 -0.011657)
 18:    272.59   0.000265    1.34  0.000304  (-0.015885 -0.001207 -0.007068)
 19:    305.15   0.000808    4.09  0.000827  (-0.018380 -0.010940  0.019215)
 20:    318.01   0.000454    2.30  0.000446  ( 0.010624 -0.010469 -0.014944)
 21:    338.74   0.006675   33.73  0.006150  ( 0.063856 -0.039598  0.022450)
 22:    353.43   0.000202    1.02  0.000178  ( 0.007890  0.008193 -0.006997)
 23:    378.82   0.001580    7.99  0.001302  (-0.033127  0.013581 -0.004452)
 24:    381.91   0.000164    0.83  0.000134  ( 0.003018  0.001051  0.011126)
 25:    403.43   0.000615    3.11  0.000475  (-0.021740 -0.001170 -0.001205)
 26:    414.26   0.002695   13.62  0.002030  ( 0.043312 -0.005384 -0.011199)
 27:    439.27   0.007183   36.30  0.005103  (-0.053350  0.047391  0.003277)
 28:    458.73   0.005456   27.57  0.003711  ( 0.057565 -0.018504  0.007435)
 29:    476.76   0.008305   41.97  0.005436  (-0.071672  0.016775 -0.004255)
 30:    514.78   0.000061    0.31  0.000037  (-0.000212  0.005687  0.002130)
 31:    527.91   0.000633    3.20  0.000374  (-0.005254 -0.001207  0.018584)
 32:    530.56   0.002876   14.53  0.001692  (-0.039677  0.009828 -0.004545)
 33:    551.85   0.004673   23.62  0.002643  (-0.046984  0.003227 -0.020605)
 34:    591.80   0.007964   40.25  0.004199  (-0.062443  0.016994 -0.003390)
 35:    614.08   0.000862    4.35  0.000438  (-0.008078 -0.018854 -0.004135)
 36:    622.65   0.001841    9.30  0.000923  (-0.029273 -0.004378  0.006825)
 37:    636.76   0.002467   12.47  0.001209  ( 0.011375 -0.032285 -0.006106)
 38:    661.78   0.001995   10.08  0.000941  (-0.009499 -0.008821 -0.027799)
 39:    691.17   0.004060   20.52  0.001833  ( 0.039351  0.009605 -0.013868)
 40:    702.96   0.001255    6.34  0.000557  ( 0.015306  0.017684 -0.003160)
 41:    707.00   0.018536   93.67  0.008182  (-0.025364 -0.038928  0.077608)
 42:    719.51   0.000980    4.95  0.000425  ( 0.017571  0.010377 -0.002901)
 43:    743.37   0.000357    1.81  0.000150  (-0.010879  0.004590  0.003255)
 44:    755.99   0.001711    8.65  0.000706  ( 0.001006 -0.003650  0.026304)
 45:    791.84   0.003482   17.60  0.001372  (-0.029642  0.021603 -0.005194)
 46:    813.42   0.006464   32.66  0.002480  ( 0.007230  0.023399 -0.043359)
 47:    854.84   0.003045   15.39  0.001112  (-0.022337  0.012382 -0.021436)
 48:    860.16   0.002841   14.36  0.001031  ( 0.029422 -0.008479  0.009645)
 49:    869.43   0.002638   13.33  0.000947  (-0.009449  0.029153 -0.002792)
 50:    882.25   0.005859   29.61  0.002073  ( 0.035199 -0.017732 -0.022784)
 51:    890.08   0.004678   23.64  0.001640  (-0.035217 -0.005868  0.019114)
 52:    897.56   0.000690    3.49  0.000240  ( 0.001024 -0.001015  0.015422)
 53:    907.66   0.007351   37.15  0.002527  ( 0.048688 -0.008139  0.009521)
 54:    911.33   0.000693    3.50  0.000237  (-0.011453 -0.010208  0.001408)
 55:    934.25   0.000967    4.89  0.000323  (-0.000257 -0.014464  0.010667)
 56:    946.81   0.006418   32.44  0.002115  (-0.037812  0.026134 -0.001650)
 57:    989.07   0.027387  138.41  0.008641  ( 0.082934 -0.041805  0.003923)
 58:    992.03   0.002278   11.51  0.000717  ( 0.024654 -0.009355  0.004627)
 59:   1020.97   0.002546   12.86  0.000778  (-0.022780 -0.004941 -0.015320)
 60:   1030.60   0.000322    1.63  0.000097  (-0.005395  0.008170  0.001269)
 61:   1041.33   0.001689    8.53  0.000506  (-0.011023  0.012971  0.014708)
 62:   1052.57   0.003005   15.19  0.000891  ( 0.029116  0.005086  0.004168)
 63:   1059.54   0.002240   11.32  0.000660  ( 0.013822  0.017503  0.012742)
 64:   1086.78   0.003194   16.14  0.000917  (-0.029287 -0.007114  0.002964)
 65:   1095.10   0.000952    4.81  0.000271  (-0.002174  0.002930 -0.016059)
 66:   1098.24   0.018454   93.26  0.005244  ( 0.066463 -0.028644 -0.002452)
 67:   1112.26   0.011945   60.37  0.003351  (-0.054678  0.016740 -0.009024)
 68:   1142.48   0.014993   75.77  0.004095  (-0.045183  0.041621  0.017927)
 69:   1158.13   0.007816   39.50  0.002106  (-0.009503  0.042152  0.015458)
 70:   1179.26   0.118027  596.46  0.031233  (-0.170736  0.045187 -0.006362)
 71:   1202.13   0.014279   72.16  0.003707  ( 0.058398  0.013033  0.011247)
 72:   1205.85   0.004743   23.97  0.001227  ( 0.017665 -0.029919  0.004503)
 73:   1211.29   0.045810  231.51  0.011802  (-0.104287  0.030393 -0.001625)
 74:   1222.69   0.043651  220.59  0.011141  ( 0.101798 -0.025736  0.010755)
 75:   1227.64   0.023705  119.80  0.006026  (-0.069484  0.034557  0.001894)
 76:   1232.08   0.047659  240.85  0.012071  ( 0.092683 -0.058952 -0.002379)
 77:   1272.52   0.033825  170.94  0.008295  (-0.078489  0.045737  0.006516)
 78:   1284.97   0.025754  130.15  0.006254  ( 0.075618  0.013889  0.018532)
 79:   1296.00   0.001211    6.12  0.000292  (-0.016658  0.002062  0.003130)
 80:   1298.42   0.001915    9.68  0.000460  (-0.009022  0.003674  0.019116)
 81:   1314.33   0.141332  714.23  0.033557  ( 0.180269 -0.023727  0.022284)
 82:   1323.58   0.042255  213.54  0.009963  (-0.087642  0.047527  0.004756)
 83:   1339.93   0.019728   99.70  0.004595  (-0.057358  0.035134  0.008381)
 84:   1342.24   0.303081  1531.65  0.070465  (-0.239038  0.115216  0.007147)
 85:   1354.30   0.001952    9.87  0.000450  ( 0.008955  0.018902  0.003516)
 86:   1367.14   0.009344   47.22  0.002133  (-0.036292  0.028286  0.003947)
 87:   1371.90   0.006666   33.69  0.001516  (-0.003040  0.035613  0.015452)
 88:   1379.64   0.006673   33.72  0.001509  (-0.029090  0.025522  0.003443)
 89:   1382.90   0.009823   49.64  0.002217  (-0.045814  0.010484  0.002784)
 90:   1383.92   0.008776   44.35  0.001979  (-0.035182 -0.024759 -0.011317)
 91:   1400.72   0.088414  446.81  0.019698  ( 0.107526 -0.089232 -0.013168)
 92:   1424.29   0.012637   63.86  0.002769  (-0.048186  0.020789  0.003830)
 93:   1443.93   0.025619  129.47  0.005537  (-0.066104  0.033864 -0.004506)
 94:   1450.11   0.004226   21.36  0.000909  ( 0.027553 -0.011701  0.003653)
 95:   1461.16   0.001364    6.89  0.000291  ( 0.008174 -0.014985  0.000013)
 96:   1469.19   0.005717   28.89  0.001214  ( 0.028682 -0.012111  0.015652)
 97:   1475.49   0.002316   11.71  0.000490  ( 0.015504 -0.015797  0.000081)
 98:   1482.94   0.001975    9.98  0.000416  ( 0.016743 -0.007067 -0.009237)
 99:   1483.85   0.001839    9.29  0.000387  (-0.016341 -0.003006  0.010523)
100:   1495.71   0.085153  430.33  0.017766  ( 0.128192 -0.035999  0.006100)
101:   1512.31   0.014703   74.30  0.003034  ( 0.019795 -0.049993 -0.011950)
102:   1516.23   0.036985  186.91  0.007612  (-0.077346  0.038351  0.012605)
103:   1535.11   0.054824  277.06  0.011145  (-0.104262 -0.001767 -0.016467)
104:   1560.56   0.008668   43.80  0.001733  (-0.023046  0.031906  0.013571)
105:   1585.21   0.054283  274.32  0.010686  (-0.098168 -0.027958 -0.016356)
106:   1604.11   0.244234  1234.26  0.047513  (-0.213390  0.041611 -0.015703)
107:   1648.38   0.277290  1401.31  0.052495  ( 0.205552  0.086093  0.053211)
108:   2951.74   0.005994   30.29  0.000634  (-0.001118 -0.019601 -0.015756)
109:   2956.08   0.063741  322.12  0.006729  ( 0.066273 -0.013714 -0.046353)
110:   3005.59   0.005389   27.23  0.000559  (-0.011431 -0.007116  0.019447)
111:   3005.72   0.008832   44.63  0.000917  (-0.017386 -0.020855 -0.013406)
112:   3036.24   0.001519    7.67  0.000156  (-0.006845  0.000066 -0.010451)
113:   3036.85   0.018736   94.68  0.001925  ( 0.007553 -0.022914  0.036650)
114:   3077.62   0.008144   41.16  0.000826  (-0.004005 -0.018591 -0.021545)
115:   3087.09   0.006106   30.86  0.000617  (-0.018676  0.012656 -0.010405)
116:   3090.79   0.005949   30.06  0.000601  (-0.020693 -0.012426  0.004250)
117:   3095.58   0.009515   48.08  0.000959  (-0.020437 -0.020119  0.011693)
118:   3096.16   0.026311  132.97  0.002652  (-0.043979  0.023545 -0.012784)
119:   3099.52   0.013760   69.54  0.001385  ( 0.015014 -0.027902 -0.019530)
120:   3169.20   0.002819   14.24  0.000278  ( 0.012912 -0.010400 -0.001634)
121:   3181.29   0.002461   12.43  0.000241  (-0.013588 -0.000863 -0.007483)
122:   3190.74   0.003643   18.41  0.000356  ( 0.014841  0.010116  0.005805)
123:   3194.27   0.007152   36.14  0.000699  (-0.025021  0.006331 -0.005707)
124:   3237.75   0.000417    2.11  0.000040  (-0.000909 -0.005495 -0.003030)
125:   3257.63   0.000465    2.35  0.000045  ( 0.004310 -0.004721  0.001920)

* The epsilon (eps) is given for a Dirac delta lineshape.
** The dipole moment derivative (T) already includes vibrational overlap.

The first frequency considered to be a vibration is 6
The total number of vibrations considered is 120


--------------------------
THERMOCHEMISTRY AT 298.15K
--------------------------

Temperature         ...   298.15 K
Pressure            ...     1.00 atm
Total Mass          ...   318.38 AMU
Quasi RRHO          ...     True
Cut-Off Frequency   ...     1.00 cm^-1

Throughout the following assumptions are being made:
  (1) The electronic state is orbitally nondegenerate
  (2) There are no thermally accessible electronically excited states
  (3) Hindered rotations indicated by low frequency modes are not
      treated as such but are treated as vibrations and this may
      cause some error
  (4) All equations used are the standard statistical mechanics
      equations for an ideal gas
  (5) All vibrations are strictly harmonic

freq.      21.95  E(vib)   ...       0.56 
freq.      30.67  E(vib)   ...       0.55 
freq.      56.84  E(vib)   ...       0.51 
freq.      73.52  E(vib)   ...       0.49 
freq.      78.79  E(vib)   ...       0.49 
freq.      98.66  E(vib)   ...       0.46 
freq.     120.67  E(vib)   ...       0.44 
freq.     138.25  E(vib)   ...       0.42 
freq.     160.59  E(vib)   ...       0.39 
freq.     193.30  E(vib)   ...       0.36 
freq.     215.52  E(vib)   ...       0.34 
freq.     251.48  E(vib)   ...       0.30 
freq.     272.59  E(vib)   ...       0.29 
freq.     305.15  E(vib)   ...       0.26 
freq.     318.01  E(vib)   ...       0.25 
freq.     338.74  E(vib)   ...       0.23 
freq.     353.43  E(vib)   ...       0.22 
freq.     378.82  E(vib)   ...       0.21 
freq.     381.91  E(vib)   ...       0.21 
freq.     403.43  E(vib)   ...       0.19 
freq.     414.26  E(vib)   ...       0.19 
freq.     439.27  E(vib)   ...       0.17 
freq.     458.73  E(vib)   ...       0.16 
freq.     476.76  E(vib)   ...       0.15 
freq.     514.78  E(vib)   ...       0.13 
freq.     527.91  E(vib)   ...       0.13 
freq.     530.56  E(vib)   ...       0.13 
freq.     551.85  E(vib)   ...       0.12 
freq.     591.80  E(vib)   ...       0.10 
freq.     614.08  E(vib)   ...       0.10 
freq.     622.65  E(vib)   ...       0.09 
freq.     636.76  E(vib)   ...       0.09 
freq.     661.78  E(vib)   ...       0.08 
freq.     691.17  E(vib)   ...       0.07 
freq.     702.96  E(vib)   ...       0.07 
freq.     707.00  E(vib)   ...       0.07 
freq.     719.51  E(vib)   ...       0.07 
freq.     743.37  E(vib)   ...       0.06 
freq.     755.99  E(vib)   ...       0.06 
freq.     791.84  E(vib)   ...       0.05 
freq.     813.42  E(vib)   ...       0.05 
freq.     854.84  E(vib)   ...       0.04 
freq.     860.16  E(vib)   ...       0.04 
freq.     869.43  E(vib)   ...       0.04 
freq.     882.25  E(vib)   ...       0.04 
freq.     890.08  E(vib)   ...       0.04 
freq.     897.56  E(vib)   ...       0.03 
freq.     907.66  E(vib)   ...       0.03 
freq.     911.33  E(vib)   ...       0.03 
freq.     934.25  E(vib)   ...       0.03 
freq.     946.81  E(vib)   ...       0.03 
freq.     989.07  E(vib)   ...       0.02 
freq.     992.03  E(vib)   ...       0.02 
freq.    1020.97  E(vib)   ...       0.02 
freq.    1030.60  E(vib)   ...       0.02 
freq.    1041.33  E(vib)   ...       0.02 
freq.    1052.57  E(vib)   ...       0.02 
freq.    1059.54  E(vib)   ...       0.02 
freq.    1086.78  E(vib)   ...       0.02 
freq.    1095.10  E(vib)   ...       0.02 
freq.    1098.24  E(vib)   ...       0.02 
freq.    1112.26  E(vib)   ...       0.01 
freq.    1142.48  E(vib)   ...       0.01 
freq.    1158.13  E(vib)   ...       0.01 
freq.    1179.26  E(vib)   ...       0.01 
freq.    1202.13  E(vib)   ...       0.01 
freq.    1205.85  E(vib)   ...       0.01 
freq.    1211.29  E(vib)   ...       0.01 
freq.    1222.69  E(vib)   ...       0.01 
freq.    1227.64  E(vib)   ...       0.01 
freq.    1232.08  E(vib)   ...       0.01 
freq.    1272.52  E(vib)   ...       0.01 
freq.    1284.97  E(vib)   ...       0.01 
freq.    1296.00  E(vib)   ...       0.01 
freq.    1298.42  E(vib)   ...       0.01 
freq.    1314.33  E(vib)   ...       0.01 
freq.    1323.58  E(vib)   ...       0.01 
freq.    1339.93  E(vib)   ...       0.01 
freq.    1342.24  E(vib)   ...       0.01 
freq.    1354.30  E(vib)   ...       0.01 
freq.    1367.14  E(vib)   ...       0.01 
freq.    1371.90  E(vib)   ...       0.01 
freq.    1379.64  E(vib)   ...       0.01 
freq.    1382.90  E(vib)   ...       0.01 
freq.    1383.92  E(vib)   ...       0.00 
freq.    1400.72  E(vib)   ...       0.00 
freq.    1424.29  E(vib)   ...       0.00 
freq.    1443.93  E(vib)   ...       0.00 
freq.    1450.11  E(vib)   ...       0.00 
freq.    1461.16  E(vib)   ...       0.00 
freq.    1469.19  E(vib)   ...       0.00 
freq.    1475.49  E(vib)   ...       0.00 
freq.    1482.94  E(vib)   ...       0.00 
freq.    1483.85  E(vib)   ...       0.00 
freq.    1495.71  E(vib)   ...       0.00 
freq.    1512.31  E(vib)   ...       0.00 
freq.    1516.23  E(vib)   ...       0.00 
freq.    1535.11  E(vib)   ...       0.00 
freq.    1560.56  E(vib)   ...       0.00 
freq.    1585.21  E(vib)   ...       0.00 
freq.    1604.11  E(vib)   ...       0.00 
freq.    1648.38  E(vib)   ...       0.00 
freq.    2951.74  E(vib)   ...       0.00 
freq.    2956.08  E(vib)   ...       0.00 
freq.    3005.59  E(vib)   ...       0.00 
freq.    3005.72  E(vib)   ...       0.00 
freq.    3036.24  E(vib)   ...       0.00 
freq.    3036.85  E(vib)   ...       0.00 
freq.    3077.62  E(vib)   ...       0.00 
freq.    3087.09  E(vib)   ...       0.00 
freq.    3090.79  E(vib)   ...       0.00 
freq.    3095.58  E(vib)   ...       0.00 
freq.    3096.16  E(vib)   ...       0.00 
freq.    3099.52  E(vib)   ...       0.00 
freq.    3169.20  E(vib)   ...       0.00 
freq.    3181.29  E(vib)   ...       0.00 
freq.    3190.74  E(vib)   ...       0.00 
freq.    3194.27  E(vib)   ...       0.00 
freq.    3237.75  E(vib)   ...       0.00 
freq.    3257.63  E(vib)   ...       0.00 

------------
INNER ENERGY
------------

The inner energy is: U= E(el) + E(ZPE) + E(vib) + E(rot) + E(trans)
    E(el)   - is the total energy from the electronic structure calculation
              = E(kin-el) + E(nuc-el) + E(el-el) + E(nuc-nuc)
    E(ZPE)  - the the zero temperature vibrational energy from the frequency calculation
    E(vib)  - the the finite temperature correction to E(ZPE) due to population
              of excited vibrational states
    E(rot)  - is the rotational thermal energy
    E(trans)- is the translational thermal energy

Summary of contributions to the inner energy U:
Electronic energy                ...  -1032.69528045 Eh
Zero point energy                ...      0.33831731 Eh     212.30 kcal/mol
Thermal vibrational correction   ...      0.01609126 Eh      10.10 kcal/mol
Thermal rotational correction    ...      0.00141627 Eh       0.89 kcal/mol
Thermal translational correction ...      0.00141627 Eh       0.89 kcal/mol
-----------------------------------------------------------------------
Total thermal energy                  -1032.33803933 Eh


Summary of corrections to the electronic energy:
(perhaps to be used in another calculation)
Total thermal correction                  0.01892381 Eh      11.87 kcal/mol
Non-thermal (ZPE) correction              0.33831731 Eh     212.30 kcal/mol
-----------------------------------------------------------------------
Total correction                          0.35724112 Eh     224.17 kcal/mol


--------
ENTHALPY
--------

The enthalpy is H = U + kB*T
                kB is Boltzmann's constant
Total thermal energy              ...  -1032.33803933 Eh 
Thermal Enthalpy correction       ...      0.00094421 Eh       0.59 kcal/mol
-----------------------------------------------------------------------
Total Enthalpy                    ...  -1032.33709512 Eh


Note: Only C1 symmetry has been detected, increase convergence thresholds 
      if your molecule has a higher symmetry. Symmetry factor of 1.0 is   
      used for the rotational entropy correction. 
 

Note: Rotational entropy computed according to Herzberg 
Infrared and Raman Spectra, Chapter V,1, Van Nostrand Reinhold, 1945 
Point Group:  C1, Symmetry Number:   1  
Rotational constants in cm-1:     0.021264     0.003960     0.003376 

Vibrational entropy computed according to the QRRHO of S. Grimme
Chem.Eur.J. 2012 18 9955 using a reference frequency of 100.0 cm-1


-------
ENTROPY
-------

The entropy contributions are T*S = T*(S(el)+S(vib)+S(rot)+S(trans))
     S(el)   - electronic entropy
     S(vib)  - vibrational entropy
     S(rot)  - rotational entropy
     S(trans)- translational entropy
The entropies will be listed as multiplied by the temperature to get
units of energy

Electronic entropy                ...      0.00000000 Eh      0.00 kcal/mol
Vibrational entropy               ...      0.02784214 Eh     17.47 kcal/mol
Rotational entropy                ...      0.01662683 Eh     10.43 kcal/mol
Translational entropy             ...      0.02051137 Eh     12.87 kcal/mol
-----------------------------------------------------------------------
Final entropy term                ...      0.06498034 Eh     40.78 kcal/mol

In case the symmetry of your molecule has not been determined correctly
or in case you have a reason to use a different symmetry number we print 
out the resulting rotational entropy values for sn=1,12:

 non-linear molecules -----------------------------------
|  sn= 1 | S(rot)=       0.01662683 Eh     10.43 kcal/mol|
|  sn= 2 | S(rot)=       0.01597237 Eh     10.02 kcal/mol|
|  sn= 3 | S(rot)=       0.01558954 Eh      9.78 kcal/mol|
|  sn= 4 | S(rot)=       0.01531791 Eh      9.61 kcal/mol|
|  sn= 5 | S(rot)=       0.01510723 Eh      9.48 kcal/mol|
|  sn= 6 | S(rot)=       0.01493508 Eh      9.37 kcal/mol|
|  sn= 7 | S(rot)=       0.01478953 Eh      9.28 kcal/mol|
|  sn= 8 | S(rot)=       0.01466346 Eh      9.20 kcal/mol|
|  sn= 9 | S(rot)=       0.01455225 Eh      9.13 kcal/mol|
|  sn=10 | S(rot)=       0.01445277 Eh      9.07 kcal/mol|
|  sn=11 | S(rot)=       0.01436278 Eh      9.01 kcal/mol|
|  sn=12 | S(rot)=       0.01428062 Eh      8.96 kcal/mol|
 linear molecules ---------------------------------------
|  Dinfh | S(rot)=       0.01069931 Eh      6.71 kcal/mol|
|  Cinfv | S(rot)=       0.01135377 Eh      7.12 kcal/mol|
 --------------------------------------------------------


-------------------
GIBBS FREE ENERGY
-------------------

The Gibbs free energy is G = H - T*S

Total enthalpy                    ...  -1032.33709512 Eh 
Total entropy correction          ...     -0.06498034 Eh    -40.78 kcal/mol
-----------------------------------------------------------------------
Final Gibbs free energy         ...  -1032.40207546 Eh

For completeness - the Gibbs free energy minus the electronic energy
G-E(el)                           ...      0.29320499 Eh    183.99 kcal/mol



--------------------------------
SUGGESTED CITATIONS FOR THIS RUN
--------------------------------

Below you find a list of papers that are relevant to this ORCA run
We neither can nor want to force you to cite these papers, but we appreciate if you do
You receive ORCA, which is the product of decades of hard work by many enthusiastic individuals, for free
The only thing we kindly ask in return is that you cite our papers,
We deeply appreciate it, if you show your appreciation for ORCA by not just citing the generic ORCA reference.

Please note that relegating all ORCA citations to the supporting information does *not* help us.
SI sections are not indexed - citations you put there will not count into any citation statistics
But we need these citations in order to attract the funding resources that allow us to do what we are doing

Therefore, if you are a happy ORCA user, please consider citing a few of the papers listed below in the main body of your paper

In addition to the list printed below, the program has created the file NMU-1.bibtex that contains the list in bibtex format
You can import this file easily into all common literature databanks and citation aid programs


List of essential papers. We consider these as the minimum necessary citations

  1. Neese,F.
     Software update: the ORCA program system, version 5.0
     WIRES Comput. Molec. Sci., 2022 12(1)e1606
     doi.org/10.1002/wcms.1606

List of papers to cite with high priority. The work reported in these papers was absolutely
necessary for this run to complete.
Our perspective: the developers of density functionals and basis sets usually get cited in chemistry papers
Good! But without the algorithms to do something with them, the functionals or basis sets would not do anything.
Hence, in our opinion, the algorithm design and method developments papers are equally worthy of getting cited

  1. Neese,F.; Olbrich,G.
     Efficient use of the resolution of the identity approximation in time-dependent density functional calculations with hybrid density functionals
     Chem. Phys. Lett., 2002 362 170-178
     doi.org/10.1016/s0009-2614(02)01053-9
  2. Neese,F.
     An improvement of the resolution of the identity approximation for the formation of the Coulomb matrix
     J. Comp. Chem., 2003 24(14)1740-1747
     doi.org/10.1002/jcc.10318
  3. Neese,F.; Wennmohs,F.; Hansen,A.; Becker,U.
     Efficient, approximate and parallel Hartree-Fock and hybrid DFT calculations. A 'chain-of-spheres' algorithm for the Hartree-Fock exchange
     Chem. Phys., 2009 356(1-3)98-109
     doi.org/10.1016/j.chemphys.2008.10.036
  4. Petrenko,T.; Kossmann,S.; Neese,F.
     Efficient time-dependent density functional theory approximations for hybrid density functionals: Analytical gradients and parallelization
     J. Chem. Phys., 2011 134 054116
     doi.org/10.1063/1.3533441
  5. Bykov,D.; Petrenko,T.; Izsak,R.; Kossmann,S.; Becker,U.; Valeev,E.; Neese,F.
     Efficient implementation of the analytic second derivatives of Hartree-Fock and hybrid DFT energies: a detailed analysis of different approximations
     Molec. Phys., 2015 113 1961-1977
     doi.org/10.1080/00268976.2015.1025114
  6. Garcia-Rates,M.; Neese,F.
     Effect of the Solute Cavity on the Solvation Energy and its Derivatives within the Framework of the Gaussian Charge Scheme
     J. Comput. Chem., 2020 41 922-939
     doi.org/10.1002/jcc.26139
  7. Helmich-Paris,B.; de Souza,B.; Neese,F.; Izsák,R.
     An improved chain of spheres for exchange algorithm
     J. Chem. Phys., 2021 155 104109
     doi.org/doi: 10.1063/5.0058766.
  8. Neese,F.
     The SHARK Integral Generation and Digestion System
     J. Comp. Chem., 2022  1-16
     doi.org/10.1002/jcc.26942
  9. Grimme,S.; Antony,J.; Ehrlich,S.; Krieg,H.
     A consistent and accurate ab initio parametrization of density functional dispersion correction (DFT-D) for the 94 elements H-Pu
     J. Chem. Phys., 2010 132 154104
     doi.org/10.1063/1.3382344
 10. Grimme,S.; Ehrlich,S.; Goerigk,L.
     Effect of the damping function in dispersion corrected density functional theory
     J. Comput. Chem., 2011 32(7)1456-1465
     doi.org/10.1002/jcc.21759

List of suggested additional citations. These are papers that are important in the 'surrounding' of 
of this run, or papers that preceded the highly important papers. If you like your results we are grateful for a citation.

  1. Izsak,R.; Neese,F.
     An overlap fitted chain of spheres exchange method
     J. Chem. Phys., 2011 135 144105
     doi.org/10.1063/1.3646921
  2. Izsak,R.; Hansen,A.; Neese,F.
     The resolution of identity and chain of spheres approximations for the LPNO-CCSD singles Fock term
     Molec. Phys., 2012 110 2413-2417
     doi.org/10.1080/00268976.2012.687466
  3. Neese,F.
     The ORCA program system
     WIRES Comput. Molec. Sci., 2012 2(1)73-78
     doi.org/10.1002/wcms.81
  4. Izsak,R.; Neese,F.; Klopper,W.
     Robust fitting techniques in the chain of spheres approximation to the Fock exchange: The role of the complementary space
     J. Chem. Phys., 2013 139 
     doi.org/10.1063/1.4819264
  5. Neese,F.
     Software update: the ORCA program system, version 4.0
     WIRES Comput. Molec. Sci., 2018 8(1)1-6
     doi.org/10.1002/wcms.1327
  6. Neese,F.; Wennmohs,F.; Becker,U.; Riplinger,C.
     The ORCA quantum chemistry program package
     J. Chem. Phys., 2020 152 Art. No. L224108
     doi.org/10.1063/5.0004608

List of optional additional citations

  1. Neese,F.
     Approximate second-order SCF convergence for spin unrestricted wavefunctions
     Chem. Phys. Lett., 2000 325(1-3)93-98
     doi.org/10.1016/s0009-2614(00)00662-x

Timings for individual modules:

Sum of individual times          ...   216745.342 sec (=3612.422 min)
Startup calculation              ...       66.222 sec (=   1.104 min)   0.0 %
SCF iterations                   ...     1766.349 sec (=  29.439 min)   0.8 %
Property integrals               ...        7.019 sec (=   0.117 min)   0.0 %
Property calculations            ...        0.163 sec (=   0.003 min)   0.0 %
CIS module                       ...     4333.622 sec (=  72.227 min)   2.0 %
Geometry relaxation              ...        0.179 sec (=   0.003 min)   0.0 %
Numerical frequency calculation  ...   210571.788 sec (=3509.530 min)  97.2 %
                             ****ORCA TERMINATED NORMALLY****
TOTAL RUN TIME: 2 days 11 hours 59 minutes 6 seconds 83 msec
