42
Coordinates from ORCA-job NMU-1 E -1032.695227364336
  C      -6.561581     -1.481196     -0.143306
  C      -6.537991     -2.592804     -1.178141
  C      -5.564889     -3.677809     -0.734651
  H      -6.235911     -2.183030     -2.145506
  H      -7.545915     -2.994260     -1.288653
  C      -4.219506     -3.091444     -0.392938
  H      -5.446093     -4.439221     -1.507185
  H      -5.972764     -4.187166      0.146272
  C      -4.114213     -1.729730      0.033054
  N      -5.229268     -0.938757      0.103226
  H      -6.975828     -1.859097      0.803729
  H      -7.194972     -0.654599     -0.464729
  C      -5.173020      0.396835      0.686414
  C      -3.864242      1.091571      0.356229
  H      -5.294774      0.319988      1.777612
  H      -6.025216      0.957144      0.303800
  C      -2.691186      0.241198      0.826738
  H      -3.847077      2.068891      0.839517
  H      -3.804839      1.254440     -0.722795
  C      -2.836707     -1.188899      0.378993
  H      -2.631992      0.269468      1.921207
  H      -1.748556      0.647104      0.460789
  C      -3.077934     -3.855672     -0.477592
  C      -1.732445     -2.020938      0.297730
  C      -1.799182     -3.357221     -0.135368
  O      -0.525023     -1.477215      0.664691
  C       0.679566     -2.180084      0.597201
  C      -0.603391     -4.120126     -0.202564
  C       0.641857     -3.556465      0.149496
  O       1.657868     -1.517553      0.917370
  C       1.871190     -4.315661      0.046456
  C       3.077524     -3.997637      0.715432
  C       1.914519     -5.492371     -0.753384
  N       2.981265     -6.269128     -0.903387
  C       4.103370     -5.938691     -0.249075
  C       4.183725     -4.809795      0.566058
  H       1.042168     -5.787823     -1.322877
  H       5.106267     -4.580713      1.084246
  H       4.956722     -6.594606     -0.380232
  H       3.124774     -3.129760      1.352449
  H      -3.156014     -4.883219     -0.813531
  H      -0.678966     -5.159300     -0.482334
42
Coordinates from ORCA-job NMU-1 E -1032.695291544918
  C      -6.554846     -1.482369     -0.141461
  C      -6.530279     -2.589220     -1.179332
  C      -5.560981     -3.675719     -0.735849
  H      -6.223448     -2.176318     -2.143708
  H      -7.538305     -2.988598     -1.294120
  C      -4.217099     -3.091115     -0.395085
  H      -5.442643     -4.437228     -1.508020
  H      -5.969141     -4.182688      0.145984
  C      -4.111119     -1.731292      0.030704
  N      -5.224128     -0.941456      0.103562
  H      -6.966409     -1.863802      0.804969
  H      -7.188038     -0.654687     -0.459571
  C      -5.166842      0.390173      0.690138
  C      -3.860554      1.084442      0.355263
  H      -5.283020      0.308988      1.781331
  H      -6.020858      0.950468      0.312347
  C      -2.688240      0.235181      0.824941
  H      -3.842177      2.062480      0.836580
  H      -3.803694      1.243168     -0.724377
  C      -2.835559     -1.191887      0.376848
  H      -2.628999      0.261929      1.919127
  H      -1.745509      0.639706      0.458198
  C      -3.077267     -3.855563     -0.479882
  C      -1.733070     -2.022467      0.295716
  C      -1.799924     -3.357495     -0.137342
  O      -0.527878     -1.477217      0.663657
  C       0.675662     -2.179730      0.595935
  C      -0.605950     -4.119890     -0.203114
  C       0.636674     -3.554796      0.149198
  O       1.654629     -1.518350      0.915694
  C       1.863654     -4.311709      0.046914
  C       3.069109     -3.989294      0.712281
  C       1.904243     -5.490436     -0.747627
  N       2.970265     -6.267614     -0.896314
  C       4.093397     -5.933144     -0.245981
  C       4.175001     -4.801071      0.564323
  H       1.029793     -5.787934     -1.312550
  H       5.098339     -4.569409      1.079550
  H       4.946810     -6.588947     -0.375996
  H       3.115832     -3.118436      1.344970
  H      -3.155709     -4.882802     -0.815609
  H      -0.680401     -5.159204     -0.481832
42
Coordinates from ORCA-job NMU-1 E -1032.695274072677
  C      -6.553797     -1.483741     -0.139262
  C      -6.528621     -2.588702     -1.178766
  C      -5.560003     -3.675429     -0.735251
  H      -6.219370     -2.173975     -2.141606
  H      -7.536559     -2.987659     -1.295902
  C      -4.216354     -3.090788     -0.395578
  H      -5.441968     -4.437449     -1.506935
  H      -5.967907     -4.181142      0.147453
  C      -4.110610     -1.731374      0.030074
  N      -5.223560     -0.942380      0.104698
  H      -6.963530     -1.867444      0.807132
  H      -7.188031     -0.656101     -0.455348
  C      -5.165696      0.387914      0.693164
  C      -3.861441      1.083260      0.353617
  H      -5.276769      0.304524      1.784793
  H      -6.021835      0.947808      0.319731
  C      -2.687697      0.235425      0.821457
  H      -3.842450      2.062297      0.832881
  H      -3.807922      1.238902     -0.726653
  C      -2.835399     -1.191483      0.374481
  H      -2.626630      0.262357      1.915572
  H      -1.745773      0.639813      0.452595
  C      -3.076614     -3.854907     -0.480974
  C      -1.732811     -2.021369      0.293156
  C      -1.799531     -3.356426     -0.139053
  O      -0.528248     -1.475193      0.660796
  C       0.675044     -2.177241      0.593266
  C      -0.605942     -4.118599     -0.204377
  C       0.636279     -3.552742      0.147876
  O       1.654082     -1.514221      0.909681
  C       1.862804     -4.310322      0.046998
  C       3.066720     -3.990962      0.716286
  C       1.903670     -5.487225     -0.750114
  N       2.969180     -6.265054     -0.898517
  C       4.090940     -5.933378     -0.244596
  C       4.171878     -4.803702      0.568968
  H       1.030561     -5.781247     -1.318579
  H       5.094225     -4.574847      1.087185
  H       4.944038     -6.589633     -0.374313
  H       3.112181     -3.122246      1.351554
  H      -3.154920     -4.882269     -0.816330
  H      -0.680298     -5.158397     -0.480796
42
Coordinates from ORCA-job NMU-1 E -1032.695277171673
  C      -6.553704     -1.484085     -0.137631
  C      -6.528135     -2.587382     -1.178902
  C      -5.560411     -3.674853     -0.735321
  H      -6.216255     -2.170938     -2.140193
  H      -7.536050     -2.985613     -1.298586
  C      -4.216515     -3.090697     -0.396046
  H      -5.442801     -4.437278     -1.506664
  H      -5.968624     -4.179606      0.147835
  C      -4.110594     -1.731574      0.030043
  N      -5.223547     -0.942778      0.106237
  H      -6.962446     -1.869926      0.808405
  H      -7.188544     -0.656203     -0.451866
  C      -5.164640      0.386274      0.697128
  C      -3.861989      1.082603      0.353278
  H      -5.270605      0.300471      1.789140
  H      -6.022730      0.946246      0.328397
  C      -2.686743      0.235580      0.818742
  H      -3.842119      2.062426      0.830872
  H      -3.811918      1.235927     -0.727513
  C      -2.835211     -1.191582      0.372869
  H      -2.623374      0.262756      1.912750
  H      -1.745671      0.639696      0.447511
  C      -3.076894     -3.854817     -0.482317
  C      -1.732583     -2.021330      0.290932
  C      -1.799655     -3.356363     -0.141083
  O      -0.527988     -1.474679      0.657339
  C       0.675108     -2.176202      0.587490
  C      -0.606477     -4.118895     -0.206209
  C       0.635729     -3.552424      0.145012
  O       1.654636     -1.513831      0.904401
  C       1.862182     -4.310225      0.046255
  C       3.064444     -3.991004      0.718353
  C       1.904702     -5.486388     -0.751789
  N       2.970534     -6.264209     -0.898180
  C       4.090685     -5.932899     -0.241311
  C       4.169895     -4.803696      0.573079
  H       1.032799     -5.779476     -1.322519
  H       5.091171     -4.575430      1.093479
  H       4.944190     -6.588989     -0.369438
  H       3.107890     -3.122502      1.354203
  H      -3.155357     -4.882130     -0.817788
  H      -0.681065     -5.159325     -0.479934
42
Coordinates from ORCA-job NMU-1 E -1032.695276357119
  C      -6.553997     -1.483811     -0.138337
  C      -6.527512     -2.586682     -1.180236
  C      -5.560933     -3.674737     -0.735187
  H      -6.212981     -2.169730     -2.140467
  H      -7.535350     -2.984287     -1.302282
  C      -4.216845     -3.091048     -0.395233
  H      -5.443175     -4.437887     -1.505781
  H      -5.970359     -4.178402      0.148042
  C      -4.110838     -1.731823      0.030708
  N      -5.223860     -0.942791      0.106772
  H      -6.963336     -1.870482      0.807128
  H      -7.188679     -0.655726     -0.452355
  C      -5.164332      0.385645      0.699189
  C      -3.862485      1.082590      0.352741
  H      -5.267078      0.298440      1.791403
  H      -6.023604      0.945692      0.333435
  C      -2.686284      0.236148      0.817109
  H      -3.842145      2.063030      0.828979
  H      -3.814479      1.234341     -0.728384
  C      -2.835281     -1.191701      0.372845
  H      -2.621364      0.264217      1.911007
  H      -1.745732      0.639819      0.444097
  C      -3.077273     -3.855365     -0.481161
  C      -1.732622     -2.021741      0.291548
  C      -1.799952     -3.357048     -0.139700
  O      -0.527890     -1.474867      0.657350
  C       0.674933     -2.176655      0.587853
  C      -0.606869     -4.119947     -0.204305
  C       0.635346     -3.552977      0.146075
  O       1.655486     -1.513214      0.899831
  C       1.862121     -4.310236      0.046398
  C       3.063815     -3.991602      0.719731
  C       1.905224     -5.485140     -0.753374
  N       2.971288     -6.262655     -0.900135
  C       4.090966     -5.931976     -0.242083
  C       4.169539     -4.803887      0.573975
  H       1.033312     -5.777540     -1.324615
  H       5.090554     -4.576396      1.095211
  H       4.944735     -6.587719     -0.370489
  H       3.106311     -3.123820      1.356822
  H      -3.155759     -4.882690     -0.816588
  H      -0.681295     -5.160691     -0.477080
42
Coordinates from ORCA-job NMU-1 E -1032.695280306525
  C      -6.554248     -1.483656     -0.139173
  C      -6.527460     -2.586921     -1.180763
  C      -5.560947     -3.674923     -0.735172
  H      -6.212850     -2.170365     -2.141131
  H      -7.535234     -2.984623     -1.302813
  C      -4.216839     -3.091160     -0.395010
  H      -5.443051     -4.438287     -1.505527
  H      -5.970693     -4.178484      0.147945
  C      -4.110935     -1.731799      0.030836
  N      -5.224114     -0.942749      0.106710
  H      -6.964334     -1.869979      0.806073
  H      -7.188603     -0.655526     -0.453724
  C      -5.164687      0.385555      0.699665
  C      -3.862982      1.082949      0.353122
  H      -5.266988      0.297963      1.791849
  H      -6.024197      0.945576      0.334492
  C      -2.686395      0.236638      0.816877
  H      -3.842752      2.063180      0.829759
  H      -3.815365      1.235431     -0.727916
  C      -2.835362     -1.191489      0.372997
  H      -2.620743      0.265008      1.910704
  H      -1.746127      0.640402      0.443196
  C      -3.077166     -3.855394     -0.480764
  C      -1.732621     -2.021582      0.291869
  C      -1.799849     -3.356996     -0.139175
  O      -0.527777     -1.474581      0.657473
  C       0.675227     -2.176166      0.587532
  C      -0.606557     -4.119934     -0.203526
  C       0.635671     -3.552822      0.146568
  O       1.655694     -1.512738      0.899731
  C       1.862519     -4.310185      0.046526
  C       3.064435     -3.991976      0.719771
  C       1.905096     -5.485210     -0.753024
  N       2.971003     -6.262845     -0.900297
  C       4.090985     -5.932379     -0.242662
  C       4.169972     -4.804458      0.573617
  H       1.032828     -5.777460     -1.323903
  H       5.091178     -4.577270      1.094635
  H       4.944568     -6.588288     -0.371336
  H       3.107304     -3.124330      1.356944
  H      -3.155545     -4.882745     -0.816118
  H      -0.680738     -5.160730     -0.476399
