! B3LYP/G OPT FREQ 6-311G* CPCM(Water)

%tddft
    NRoots 3
    IRoot 1
end 

* xyz 0 1 
C  -3.16652765140291236889 -0.74306232658536242042 -0.23260395303284364665
C  -2.72502454250235981448 -1.66835731868220293883 -1.17662178665978212067
C  -1.40623478636057530622 -1.69112794347565587039 -1.54777778511331742806
C  -2.28650856148217096475 0.15779322876926138441 0.32640277674306772404
C  -0.91891858506391743688 0.15805687605514262550 -0.02839167910586548604
O  -2.72215076724391646934 1.04735336039097437499 1.29149978530245812536
C  -0.48707059912322980821 -0.79029755321136074819 -0.98675870095761919476
C  0.88020943849359456479 -0.82123664581459432377 -1.38866281531911361924
C  1.78383560141726471571 0.04548622324398410299 -0.87957862196009617417
C  0.04582809595598469343 1.07406309668203370222 0.52663740205739550948
C  1.39247720755366621859 1.01266127853375720314 0.08637011612276701555
N  -0.34306268141382489922 1.96651042013853727397 1.44913019498465334145
C  0.53514515350655056380 2.80340975323118879459 1.94507327960850728843
C  1.88174560364809906332 2.83192402822156363840 1.57281327076481480809
C  2.30884696868122674118 1.92346947352118791130 0.63617918850486021576
C  -3.78249178808879449321 1.85373052835113272252 1.03360257547680189916
O  -4.39397063681265187540 1.85503217363189820688 -0.02679771744772319053
N  -4.07494699173007823845 2.65625601958666024416 2.05995409818673813618
C  -5.22418360989218211188 3.53188450322609615029 1.93486386455562087150
C  -3.31974774128029936904 2.68573648305847001438 3.29395401163845980008
H  -2.36085820228825804534 2.19977109021847860859 3.13690766923864172711
H  -3.86619812394461570548 2.17231614813560236499 4.08697906476599825965
H  -3.15436805346156523555 3.72268772631006861218 3.58138006605286429718
H  -5.30779196725147173197 4.12791513613782168335 2.83669691066076889996
H  -6.13399964537575659307 2.94575921272473006951 1.79473352096989602344
H  -5.10825102351954551949 4.18282087933615454034 1.06688750351485062140
H  -1.05517894320453997636 -2.40237843274744733435 -2.27916465716426630550
H  -4.20454839835968297024 -0.71597701528234058976 0.06146110436047669268
H  -3.43090722900907429960 -2.36158777327065028118 -1.60559001264515854857
H  1.17238144801934884853 -1.55943501124756234155 -2.11961164592901418757
H  2.81794377535794193790 0.02439017771021023684 -1.18950073989867144419
H  0.14814379508631025928 3.49266263713333646734 2.68385392126646271649
H  2.55528279623241250107 3.54647667123518406385 2.01728311664254844615
H  3.33926065747511913173 1.89312290188388177015 0.31277667871745656880
*
