## avogadro generated ORCA input file 
# Basic Mode
# 
! B3LYP/G Def2-TZVP(-f) Def2-TZVP/C Def2/J RIJCOSX TightSCF ESD(FLUOR) CPCM(Water) AllPop SOSCF
%maxcore 5000
%tddft
  nroots 20
  iroot 1
end

%esd
  GSHESSIAN "HBQ-DCP-GS.hess"
  ESHESSIAN "HBQ-DCP_ES.hess"
  DOHT TRUE
  LINES VOIGT
  LINEW 50
  INLINEW 200
end

%output
  print[p_mos] true
  print[p_basis] 5
end

* xyz 1 1
   C       -2.88959       -1.04091        1.72226
   C       -2.16484       -2.23075        1.86439
   C       -0.89291       -2.32473        1.34897
   C       -2.30245        0.06749        1.16090
   C       -0.94908        0.05249        0.74974
   O       -3.11253        1.18142        0.96824
   C       -0.28618       -1.21214        0.73894
   C        0.93292       -1.37264        0.00710
   C        1.42029       -0.36819       -0.75681
   C       -0.23295        1.17308        0.21012
   C        0.84214        0.93687       -0.68203
   N       -0.52593        2.49379        0.52205
   C       -0.05974        3.49483       -0.26113
   C        0.79695        3.26568       -1.31669
   C        1.32310        1.99765       -1.46127
   C       -3.67861        1.30890       -0.29737
   O       -3.10975        0.90640       -1.29696
   N       -4.85429        1.95521       -0.26298
   C       -5.51185        2.27438       -1.52689
   C       -5.66074        2.16381        0.93689
   H       -5.12558        1.83645        1.81944
   H       -6.59115        1.59745        0.85067
   H       -5.90820        3.22189        1.03471
   H       -6.26333        1.52004       -1.77468
   H       -4.77667        2.32201       -2.32367
   H       -6.00500        3.24133       -1.42911
   H       -0.35745       -3.26505        1.36669
   H       -3.92687       -0.98510        2.02392
   H       -2.63334       -3.08957        2.32665
   H        1.40625       -2.34597        0.01055
   H        2.27254       -0.51273       -1.40760
   H       -0.34522        4.49514        0.02782
   H        1.11586        4.09322       -1.93253
   H        2.11236        1.80625       -2.17754
   P       -0.83197        3.03362        2.23652
   O       -1.34887        1.94754        3.06478
   O       -1.63562        4.35240        2.04149
   O        0.57257        3.62730        2.60091
   C       -3.10898        4.44482        2.03067
   C        1.65292        2.79926        3.17177
   C       -3.48565        5.82785        2.49668
   H       -3.49963        3.67068        2.68642
   H       -3.42558        4.25782        1.00707
   H       -3.14777        6.00289        3.51834
   H       -4.57313        5.91967        2.47121
   H       -3.06135        6.59065        1.84312
   C        2.73595        3.73202        3.65170
   H        2.00988        2.13398        2.38652
   H        1.22908        2.21220        3.98400
   H        3.13500        4.32580        2.82885
   H        3.54819        3.13730        4.07360
   H        2.36049        4.40126        4.42641


*

