
                                 *****************
                                 * O   R   C   A *
                                 *****************

                                            #,                                       
                                            ###                                      
                                            ####                                     
                                            #####                                    
                                            ######                                   
                                           ########,                                 
                                     ,,################,,,,,                         
                               ,,#################################,,                 
                          ,,##########################################,,             
                       ,#########################################, ''#####,          
                    ,#############################################,,   '####,        
                  ,##################################################,,,,####,       
                ,###########''''           ''''###############################       
              ,#####''   ,,,,##########,,,,          '''####'''          '####       
            ,##' ,,,,###########################,,,                        '##       
           ' ,,###''''                  '''############,,,                           
         ,,##''                                '''############,,,,        ,,,,,,###''
      ,#''                                            '''#######################'''  
     '                                                          ''''####''''         
             ,#######,   #######,   ,#######,      ##                                
            ,#'     '#,  ##    ##  ,#'     '#,    #''#        ,####,   ,####,        
            ##       ##  ##   ,#'  ##            #'  '#       #'       #'  '#        
            ##       ##  #######   ##           ,######,      #####,   #    #        
            '#,     ,#'  ##    ##  '#,     ,#' ,#      #,     #,   #   #,  ,#        
             '#######'   ##     ##  '#######'  #'      '#     '####' # '####'        



                #########################################################
                #                        -***-                          #
                #          Department of theory and spectroscopy        #
                #                                                       #
                #                      Frank Neese                      #
                #                                                       #
                #     Directorship, Architecture, Infrastructure        #
                #                    SHARK, DRIVERS                     #
                #        Core code/Algorithms in most modules           #
                #                                                       #
                #        Max Planck Institute fuer Kohlenforschung      #
                #                Kaiser Wilhelm Platz 1                 #
                #                 D-45470 Muelheim/Ruhr                 #
                #                      Germany                          #
                #                                                       #
                #                  All rights reserved                  #
                #                        -***-                          #
                #########################################################


                         Program Version 6.0.1  -  RELEASE   -


 With contributions from (in alphabetic order):
[Max-Planck-Institut fuer Kohlenforschung]                               
  Daniel Aravena         : Magnetic Suceptibility                        
  Michael Atanasov       : Ab Initio Ligand Field Theory (pilot matlab implementation)
  Alexander A. Auer      : GIAO ZORA, VPT2 properties, NMR spectrum      
  Ute Becker             : All parallelization in ORCA, NUMFREQ, NUMCALC 
  Giovanni Bistoni       : ED, misc. LED, open-shell LED, HFLD           
  Martin Brehm           : Molecular dynamics                            
  Dmytro Bykov           : pre 5.0 version of the SCF Hessian            
  Marcos Casanova-Páez   : Triplet and SCS-CIS(D). UHF-(DLPNO)-IP/EA/STEOM-CCSD. UHF-CVS-IP/STEOM-CCSD   
  Vijay G. Chilkuri      : MRCI spin determinant printing, contributions to CSF-ICE 
  Pauline Colinet        : FMM embedding                                 
  Dipayan Datta          : RHF DLPNO-CCSD density                        
  Achintya Kumar Dutta   : EOM-CC, STEOM-CC                              
  Nicolas Foglia         : Exact transition moments, OPA infrastructure, MCD improvements    
  Dmitry Ganyushin       : Spin-Orbit,Spin-Spin,Magnetic field MRCI      
  Miquel Garcia-Rates    : C-PCM and meta-GGA Hessian, CCSD/C-PCM, Gaussian charge scheme 
  Tiago L. C. Gouveia    : GS-ROHF, GS-ROCIS                             
  Yang Guo               : DLPNO-NEVPT2, F12-NEVPT2, CIM, IAO-localization        
  Andreas Hansen         : Spin unrestricted coupled pair/coupled cluster methods 
  Ingolf Harden          : AUTO-CI MPn and infrastructure                
  Benjamin Helmich-Paris : MC-RPA, TRAH-(SCF,CASSCF), AVAS, COSX integrals, SCF dyn. polar. 
  Lee Huntington         : MR-EOM, pCC                                   
  Robert Izsak           : Overlap fitted RIJCOSX, COSX-SCS-MP3, EOM     
  Riya Kayal             : Wick's Theorem for AUTO-CI, AUTO-CI UHF-CCSDT 
  Emily Kempfer          : AUTO-CI, RHF CISDT and CCSDT                  
  Christian Kollmar      : KDIIS, OOCD, Brueckner-CCSD(T), CCSD density, CASPT2, CASPT2-K, improved NEVPT2 
  Axel Koslowski         : Symmetry handling                             
  Simone Kossmann        : meta-GGA functionals, TD-DFT gradient, OOMP2, (MP2 Hessian; deprecated post 5.0) 
  Lucas Lang             : DCDCAS                                        
  Marvin Lechner         : AUTO-CI (C++ implementation), FIC-MRCC        
  Spencer Leger          : CASSCF response                               
  Dagmar Lenk            : GEPOL surface, SMD, ORCA-2-JSON               
  Dimitrios Liakos       : Extrapolation schemes; Compound Job, initial MDCI parallelization 
  Dimitrios Manganas     : Further ROCIS development; embedding schemes. LFT, Crystal Embedding 
  Dimitrios Pantazis     : SARC Basis sets                               
  Anastasios Papadopoulos: AUTO-CI, single reference methods and gradients 
  Taras Petrenko         : pre 6.0 DFT Hessian and TD-DFT gradient, (ASA, deprecated), ECA, 1-Electron XAS/XES, NRVS 
  Peter Pinski           : DLPNO-MP2, DLPNO-MP2 Gradient                 
  Christoph Reimann      : Effective Core Potentials                     
  Marius Retegan         : Local ZFS, SOC                                
  Christoph Riplinger    : Optimizer, TS searches, QM/MM, DLPNO-CCSD(T), (RO)-DLPNO pert. Triples 
  Michael Roemelt        : Original ROCIS implementation                 
  Masaaki Saitow         : Open-shell DLPNO-CCSD energy and density      
  Barbara Sandhoefer     : DKH picture change effects                    
  Kantharuban Sivalingam : CASSCF convergence/infrastructure, NEVPT2 and variants, FIC-MRCI 
  Bernardo de Souza      : ESD, SOC TD-DFT                               
  Georgi L. Stoychev     : AutoAux, RI-MP2 NMR, DLPNO-MP2 response, X2C  
  Van Anh Tran           : RI-MP2 g-tensors                              
  Willem Van den Heuvel  : Paramagnetic NMR                              
  Zikuan Wang            : NOTCH, Electric field optimization            
  Frank Wennmohs         : Technical directorship and infrastructure     
  Hang Xu                : AUTO-CI-Response properties                   
                                                                         
[FACCTs GmbH]                                                            
  Markus Bursch, Miquel Garcia-Rates, Christoph Riplinger, Bernardo de Souza, Georgi L. Stoychev 
                                                                 
  APM, Basis sets (HGBS, AHGBS, def-TZVP (Ac-Lr), def2-XVPD (La-Lu)), CI-OPT, improved COSX, DLPNO-Multilevel,           
  DOCKER, DRACO, updates on ESD, GOAT, IRC, LR-CPCM, MBIS, meta-GGA TD-DFT gradient, ML-optimized integration grids, 
  MM, NACMEs, nearIR, NEB, NEB-TS, NL-DFT gradient (VV10), 2- and 3-layer-ONIOM, interface openCOSMO-RS, QMMM,   
  Crystal-QMMM, SF, symmetry and pop. for TD-DFT, r2SCAN hybrids, SOLVATOR                                   
                                                                         
[Other institutions]                                                     
  V. Asgeirsson          : NEB                                           
  Christoph Bannwarth    : sTDA-DFT, sTD-DFT, PBEh-3c, B97-3c, D3        
  Sebastian Ehlert       : rSCAN, r2SCAN, r2SCAN-3c, D4, dhf basis sets  
  Marvin Friede          : D4 for Fr, Ra, Ac-Lr                          
  Lars Goerigk           : TD-DFT with DH, B97 family of functionals     
  Stefan Grimme          : VdW corrections, initial TS optimization, DFT functionals, gCP, sTDA/sTD-DF 
  Waldemar Hujo          : DFT-NL                                        
  H. Jonsson             : NEB                                           
  Holger Kruse           : gCP                                           
  Marcel Mueller         : wB97X-3c, vDZP basis set                      
  Hagen Neugebauer       : wr2SCAN                                       
  Tobias Risthaus        : range-separated hybrid DFT                    
  Lukas Wittmann         : regularized MP2, r2SCAN double-hybrids, wr2SCAN        
                                                                         
We gratefully acknowledge several colleagues who have allowed us to      
interface, adapt or use parts of their codes:                            
  Ed Valeev, F. Pavosevic, A. Kumar             : LibInt (2-el integral package), F12 methods 
  Garnet Chan, S. Sharma, J. Yang, R. Olivares  : DMRG                   
  Ulf Ekstrom                                   : XCFun DFT Library      
  Mihaly Kallay                                 : mrcc  (arbitrary order and MRCC methods)
  Frank Weinhold                                : gennbo (NPA and NBO analysis)           
  Simon Mueller                                 : openCOSMO-RS                            
  Christopher J. Cramer and Donald G. Truhlar   : smd solvation model                     
  S Lehtola, MJT Oliveira, MAL Marques          : LibXC Library                           
  Liviu Ungur et al                             : ANISO software                          


 Your calculation uses the libint2 library for the computation of 2-el integrals
 For citations please refer to: http://libint.valeyev.net

 Your ORCA version has been built with support for libXC version: 6.2.2
 For citations please refer to: https://libxc.gitlab.io

 This ORCA versions uses:
   CBLAS   interface :  Fast vector & matrix operations
   LAPACKE interface :  Fast linear algebra routines
   SCALAPACK package :  Parallel linear algebra routines
   Shared memory     :  Shared parallel matrices
   BLAS/LAPACK       :  OpenBLAS 0.3.27  USE64BITINT DYNAMIC_ARCH NO_AFFINITY Cooperlake SINGLE_THREADED
        Core in use  :  Cooperlake
   Copyright (c) 2011-2014, The OpenBLAS Project


Your calculation utilizes the atom-pairwise dispersion correction
with the Becke-Johnson damping scheme (D3BJ)


================================================================================

----- Orbital basis set information -----
Your calculation utilizes the basis: def2-TZVP(-f)
   F. Weigend and R. Ahlrichs, Phys. Chem. Chem. Phys. 7, 3297 (2005).

----- AuxJ basis set information -----
Your calculation utilizes the auxiliary basis: def2/J
   F. Weigend, Phys. Chem. Chem. Phys. 8, 1057 (2006).

----- AuxC basis set information -----
Your calculation utilizes the auxiliary basis: def2-TZVP/C
  H-La, Hf-Rn : A. Hellweg, C. Hattig, S. Hofener and W. Klopper, Theor. Chem. Acc. 117, 587 (2007).
        Ce-Lu : J. Chmela and M. E. Harding, Mol. Phys. (2018).

================================================================================
                                        WARNINGS
                       Please study these warnings very carefully!
================================================================================


WARNING: Geometry Optimization
  ===> : Switching off AutoStart
         For restart on a previous wavefunction, please use MOREAD

================================================================================
                                       INPUT FILE
================================================================================
NAME = NMU-1.inp
|  1> ! B3LYP D3 OPT FREQ Def2-TZVP(-f) Def2-TZVP/C Def2/J RIJCOSX CPCM(Water)
|  2> 
|  3> * xyz 0 1
|  4>   C   -6.55689970346216     -1.50175041672747     -0.08447518361732
|  5>   C   -6.55861148407923     -2.65952250861828     -1.06737781823014
|  6>   C   -5.55819833140054     -3.71339924539972     -0.60890590009107
|  7>   H   -6.29408784597499     -2.29283355861290     -2.06285270710318
|  8>   H   -7.56386750456361     -3.07926455559520     -1.12680093680102
|  9>   C   -4.20401198865121     -3.10116303146516     -0.33702735534460
| 10>   H   -5.45849867274309     -4.50935381067347     -1.34884311513098
| 11>   H   -5.93417133102514     -4.18337205114837      0.30664492691194
| 12>   C   -4.09927348001054     -1.71973792780474      0.03025550495245
| 13>   N   -5.21888949166577     -0.93347383705088      0.07389020932247
| 14>   H   -6.94380429880994     -1.83407862712939      0.88844304186363
| 15>   H   -7.20948217369396     -0.70106115718296     -0.43456980216469
| 16>   C   -5.16265002074475      0.41102447794349      0.64357209495647
| 17>   C   -3.86750768920855      1.11076518937596      0.27097566909140
| 18>   H   -5.26713376440852      0.36322165000691      1.73605607478637
| 19>   H   -6.02027843472078      0.96387840196678      0.25972452426506
| 20>   C   -2.67301421988064      0.28232016047738      0.72989442247166
| 21>   H   -3.84487584119190      2.10037531368565      0.72946626458892
| 22>   H   -3.83401042534656      1.24936202086716     -0.81278529222159
| 23>   C   -2.82704411566137     -1.16588504476704      0.33052188695441
| 24>   H   -2.57228090120712      0.35389786984359      1.81843767003282
| 25>   H   -1.74935573220386      0.68427525226219      0.31251497503267
| 26>   C   -3.06635735641442     -3.86393216206944     -0.42406056642577
| 27>   C   -1.72107158763425     -1.99366092289954      0.24208820125797
| 28>   C   -1.79138907953295     -3.34137579504993     -0.13889757472579
| 29>   O   -0.50125178713682     -1.44611088226946      0.55059990349368
| 30>   C   0.69073855560867     -2.14368465914979      0.49735493590460
| 31>   C   -0.59033531529371     -4.08268240551589     -0.19987151478382
| 32>   C   0.62959347330154     -3.53709256643522      0.10105239600504
| 33>   O   1.68998035047690     -1.50682773050177      0.78187026792714
| 34>   C   1.87952698324270     -4.31758436001273      0.00507687902786
| 35>   C   2.90132728000019     -4.24010827933194      0.95636761305984
| 36>   C   2.08037898817341     -5.19846934534883     -1.06510265467946
| 37>   N   3.16100169624308     -5.96592081293463     -1.21576860061846
| 38>   C   4.11842633917390     -5.88021346369174     -0.28696048922190
| 39>   C   4.03042710252724     -5.03090442457607      0.80871978292016
| 40>   H   1.32979178098827     -5.27329613936629     -1.84514205029545
| 41>   H   4.83115939919770     -4.99562517633109      1.53573482562762
| 42>   H   4.98882548026493     -6.51198621247112     -0.42716396010425
| 43>   H   2.80645646885497     -3.57682502967540      1.80410871567881
| 44>   H   -3.14599955419822     -4.90579379553451     -0.71374608666526
| 45>   H   -0.65196176718884     -5.12748040108806     -0.48255917790824
| 46> *
| 47> 
| 48> 
| 49>                          ****END OF INPUT****
================================================================================

                       *****************************
                       * Geometry Optimization Run *
                       *****************************

Geometry optimization settings:
Update method            Update   .... BFGS
Choice of coordinates    CoordSys .... (2022) Redundant Internals
Initial Hessian          InHess   .... Almloef's Model
Max. no of cycles        MaxIter  .... 126

Convergence Tolerances:
Energy Change            TolE     ....  5.0000e-06 Eh
Max. Gradient            TolMAXG  ....  3.0000e-04 Eh/bohr
RMS Gradient             TolRMSG  ....  1.0000e-04 Eh/bohr
Max. Displacement        TolMAXD  ....  4.0000e-03 bohr
RMS Displacement         TolRMSD  ....  2.0000e-03 bohr
Strict Convergence                .... False

------------------------------------------------------------------------------
                        ORCA OPTIMIZATION COORDINATE SETUP
------------------------------------------------------------------------------

The optimization will be done in redundant internal coordinates (2022)
Making redundant internal coordinates   ...  (2022 redundants) done
Evaluating the initial hessian          ...  (Almloef) done
Evaluating the coordinates              ...  done
Calculating the B-matrix                .... done
Calculating the G-matrix                .... done
Diagonalizing the G-matrix              .... done
Small eigenvalue found = 5.215e-03
Small eigenvalue found = 1.329e-02
Small eigenvalue found = 2.683e-02
The first mode is                       ....  121
The number of degrees of freedom        ....  120

    -----------------------------------------------------------------
                    Redundant Internal Coordinates


    -----------------------------------------------------------------
         Definition                    Initial Value    Approx d2E/dq
    -----------------------------------------------------------------
      1. B(C   1,C   0)                  1.5187         0.389368   
      2. B(C   2,C   1)                  1.5237         0.382313   
      3. B(H   3,C   1)                  1.0933         0.355702   
      4. B(H   4,C   1)                  1.0910         0.358796   
      5. B(C   5,C   2)                  1.5108         0.400849   
      6. B(H   6,C   2)                  1.0913         0.358351   
      7. B(H   7,C   2)                  1.0957         0.352694   
      8. B(C   8,C   5)                  1.4332         0.533013   
      9. B(N   9,C   8)                  1.3688         0.604887   
     10. B(N   9,C   0)                  1.4623         0.429085   
     11. B(H  10,C   0)                  1.0985         0.349027   
     12. B(H  11,C   0)                  1.0907         0.359231   
     13. B(C  12,N   9)                  1.4613         0.430658   
     14. B(C  13,C  12)                  1.5185         0.389687   
     15. B(H  14,C  12)                  1.0985         0.349017   
     16. B(H  15,C  12)                  1.0902         0.359850   
     17. B(C  16,C  13)                  1.5244         0.381364   
     18. B(H  17,C  13)                  1.0909         0.358917   
     19. B(H  18,C  13)                  1.0931         0.356022   
     20. B(C  19,C  16)                  1.5101         0.401849   
     21. B(C  19,C   8)                  1.4197         0.560263   
     22. B(H  20,C  16)                  1.0955         0.352852   
     23. B(H  21,C  16)                  1.0904         0.359604   
     24. B(C  22,C   5)                  1.3725         0.666378   
     25. B(C  23,C  19)                  1.3843         0.638083   
     26. B(C  24,C  23)                  1.4023         0.597205   
     27. B(C  24,C  22)                  1.4071         0.586757   
     28. B(O  25,C  23)                  1.3722         0.597398   
     29. B(C  26,O  25)                  1.3821         0.576011   
     30. B(C  27,C  24)                  1.4127         0.574761   
     31. B(C  28,C  26)                  1.4500         0.501278   
     32. B(C  28,C  27)                  1.3698         0.672836   
     33. B(O  29,C  26)                  1.2186         1.050294   
     34. B(C  30,C  28)                  1.4767         0.454335   
     35. B(C  31,C  30)                  1.3982         0.606201   
     36. B(C  32,C  30)                  1.4006         0.601010   
     37. B(N  33,C  32)                  1.3340         0.687538   
     38. B(C  34,N  33)                  1.3367         0.680702   
     39. B(C  35,C  34)                  1.3891         0.626877   
     40. B(C  35,C  31)                  1.3864         0.633182   
     41. B(H  36,C  32)                  1.0851         0.366641   
     42. B(H  37,C  35)                  1.0821         0.370687   
     43. B(H  38,C  34)                  1.0846         0.367295   
     44. B(H  39,C  31)                  1.0806         0.372807   
     45. B(H  40,C  22)                  1.0843         0.367701   
     46. B(H  41,C  27)                  1.0841         0.367965   
     47. A(C   1,C   0,H  10)          110.0095         0.324861   
     48. A(C   1,C   0,N   9)          111.5541         0.372405   
     49. A(N   9,C   0,H  11)          107.2745         0.329685   
     50. A(H  10,C   0,H  11)          107.1967         0.289308   
     51. A(C   1,C   0,H  11)          110.5629         0.326405   
     52. A(N   9,C   0,H  10)          110.1163         0.328120   
     53. A(C   2,C   1,H   3)          110.3087         0.324897   
     54. A(C   0,C   1,H   3)          109.4698         0.325875   
     55. A(C   2,C   1,H   4)          110.8092         0.325359   
     56. A(H   3,C   1,H   4)          107.6000         0.290114   
     57. A(C   0,C   1,H   4)          109.2436         0.326340   
     58. A(C   0,C   1,C   2)          109.3777         0.367388   
     59. A(C   5,C   2,H   7)          109.3308         0.326980   
     60. A(C   1,C   2,C   5)          111.2453         0.369225   
     61. A(C   5,C   2,H   6)          109.6141         0.327839   
     62. A(C   1,C   2,H   7)          108.8330         0.324444   
     63. A(C   1,C   2,H   6)          111.1264         0.325293   
     64. A(H   6,C   2,H   7)          106.5627         0.289671   
     65. A(C   2,C   5,C   8)          120.1456         0.391114   
     66. A(C   2,C   5,C  22)          120.4211         0.406777   
     67. A(C   8,C   5,C  22)          119.4292         0.427948   
     68. A(C   5,C   8,N   9)          120.1349         0.417873   
     69. A(N   9,C   8,C  19)          120.1429         0.421605   
     70. A(C   5,C   8,C  19)          119.7164         0.414899   
     71. A(C   0,N   9,C   8)          121.4496         0.399542   
     72. A(C   8,N   9,C  12)          120.6272         0.399799   
     73. A(C   0,N   9,C  12)          115.7851         0.376558   
     74. A(H  14,C  12,H  15)          107.3018         0.289385   
     75. A(C  13,C  12,H  15)          110.5415         0.326541   
     76. A(N   9,C  12,H  15)          107.4004         0.329978   
     77. A(C  13,C  12,H  14)          110.1940         0.324904   
     78. A(N   9,C  12,H  14)          110.1214         0.328317   
     79. A(N   9,C  12,C  13)          111.1706         0.372692   
     80. A(C  12,C  13,H  17)          109.4262         0.326402   
     81. A(C  12,C  13,C  16)          110.1225         0.367283   
     82. A(H  17,C  13,H  18)          107.5201         0.290170   
     83. A(C  16,C  13,H  18)          110.0826         0.324812   
     84. A(C  12,C  13,H  18)          109.1376         0.325967   
     85. A(C  16,C  13,H  17)          110.5007         0.325244   
     86. A(H  20,C  16,H  21)          106.1627         0.289850   
     87. A(C  19,C  16,H  21)          109.7971         0.328162   
     88. A(C  13,C  16,H  21)          110.3774         0.325347   
     89. A(C  19,C  16,H  20)          109.5608         0.327138   
     90. A(C  13,C  16,C  19)          111.2005         0.369225   
     91. A(C  13,C  16,H  20)          109.6135         0.324335   
     92. A(C  16,C  19,C  23)          120.5883         0.403849   
     93. A(C   8,C  19,C  23)          117.9808         0.428445   
     94. A(C   8,C  19,C  16)          121.4305         0.394716   
     95. A(C   5,C  22,C  24)          122.1292         0.435399   
     96. A(C  24,C  22,H  40)          118.5240         0.350873   
     97. A(C   5,C  22,H  40)          119.3450         0.358525   
     98. A(C  24,C  23,O  25)          119.2852         0.425497   
     99. A(C  19,C  23,O  25)          117.2100         0.430578   
    100. A(C  19,C  23,C  24)          123.5047         0.433386   
    101. A(C  23,C  24,C  27)          118.2557         0.425335   
    102. A(C  22,C  24,C  27)          124.5216         0.423994   
    103. A(C  22,C  24,C  23)          117.2203         0.426912   
    104. A(C  23,O  25,C  26)          123.8210         0.420010   
    105. A(C  28,C  26,O  29)          126.9141         0.456479   
    106. A(O  25,C  26,O  29)          115.7483         0.465101   
    107. A(O  25,C  26,C  28)          117.3345         0.409764   
    108. A(C  24,C  27,C  28)          122.5921         0.434536   
    109. A(C  28,C  27,H  41)          119.4556         0.359157   
    110. A(C  24,C  27,H  41)          117.9455         0.349694   
    111. A(C  27,C  28,C  30)          121.9387         0.416629   
    112. A(C  26,C  28,C  30)          119.3396         0.395513   
    113. A(C  26,C  28,C  27)          118.7084         0.424002   
    114. A(C  31,C  30,C  32)          116.7382         0.429904   
    115. A(C  28,C  30,C  32)          120.2294         0.408364   
    116. A(C  28,C  30,C  31)          123.0280         0.408986   
    117. A(C  35,C  31,H  39)          120.3441         0.356258   
    118. A(C  30,C  31,H  39)          120.2396         0.353637   
    119. A(C  30,C  31,C  35)          119.4134         0.433951   
    120. A(N  33,C  32,H  36)          116.0714         0.358029   
    121. A(C  30,C  32,H  36)          119.5683         0.352127   
    122. A(C  30,C  32,N  33)          124.3554         0.436872   
    123. A(C  32,N  33,C  34)          117.7022         0.443871   
    124. A(C  35,C  34,H  38)          120.5931         0.354756   
    125. A(N  33,C  34,H  38)          116.5922         0.357529   
    126. A(N  33,C  34,C  35)          122.8144         0.439412   
    127. A(C  34,C  35,H  37)          120.1981         0.355309   
    128. A(C  31,C  35,H  37)          120.8309         0.355913   
    129. A(C  31,C  35,C  34)          118.9700         0.436580   
    130. D(C   2,C   1,C   0,N   9)     56.3281         0.012055   
    131. D(C   2,C   1,C   0,H  10)    -66.1777         0.012055   
    132. D(C   2,C   1,C   0,H  11)    175.6148         0.012055   
    133. D(H   3,C   1,C   0,N   9)    -64.6410         0.012055   
    134. D(H   3,C   1,C   0,H  11)     54.6457         0.012055   
    135. D(H   3,C   1,C   0,H  10)    172.8532         0.012055   
    136. D(C   5,C   2,C   1,C   0)    -51.5593         0.011642   
    137. D(H   6,C   2,C   1,C   0)   -173.9940         0.011642   
    138. D(H   6,C   2,C   1,H   4)     65.5134         0.011642   
    139. D(H   6,C   2,C   1,H   3)    -53.5358         0.011642   
    140. D(C   5,C   2,C   1,H   3)     68.8990         0.011642   
    141. D(C   5,C   2,C   1,H   4)   -172.0519         0.011642   
    142. D(C   8,C   5,C   2,C   1)     26.1416         0.011922   
    143. D(C   8,C   5,C   2,H   6)    149.4454         0.011922   
    144. D(C  22,C   5,C   2,C   1)   -154.6072         0.011922   
    145. D(C   8,C   5,C   2,H   7)    -94.0854         0.011922   
    146. D(C  22,C   5,C   2,H   6)    -31.3034         0.011922   
    147. D(C  19,C   8,C   5,C  22)     -1.5178         0.019398   
    148. D(C  19,C   8,C   5,C   2)    177.7408         0.019398   
    149. D(N   9,C   8,C   5,C  22)    177.6097         0.019398   
    150. D(N   9,C   8,C   5,C   2)     -3.1317         0.019398   
    151. D(C  12,N   9,C   8,C  19)    -10.4856         0.029517   
    152. D(C  12,N   9,C   8,C   5)    170.3906         0.029517   
    153. D(C   0,N   9,C   8,C  19)   -173.1640         0.029517   
    154. D(C   0,N   9,C   8,C   5)      7.7122         0.029517   
    155. D(C  12,N   9,C   0,H  10)    -76.1091         0.015697   
    156. D(C  12,N   9,C   0,C   1)    161.4464         0.015697   
    157. D(C   8,N   9,C   0,H  11)   -156.3039         0.015697   
    158. D(C   8,N   9,C   0,H  10)     87.3600         0.015697   
    159. D(C   8,N   9,C   0,C   1)    -35.0844         0.015697   
    160. D(C  13,C  12,N   9,C   0)   -157.5145         0.015812   
    161. D(H  15,C  12,N   9,C   0)    -36.4705         0.015812   
    162. D(H  14,C  12,N   9,C   8)    -83.5510         0.015812   
    163. D(H  14,C  12,N   9,C   0)     80.0644         0.015812   
    164. D(C  13,C  12,N   9,C   8)     38.8701         0.015812   
    165. D(H  17,C  13,C  12,H  15)     62.1586         0.012074   
    166. D(H  17,C  13,C  12,H  14)    -56.2803         0.012074   
    167. D(H  17,C  13,C  12,N   9)   -178.6594         0.012074   
    168. D(C  16,C  13,C  12,H  15)   -176.1921         0.012074   
    169. D(C  16,C  13,C  12,H  14)     65.3689         0.012074   
    170. D(C  16,C  13,C  12,N   9)    -57.0102         0.012074   
    171. D(H  20,C  16,C  13,H  17)     47.4775         0.011587   
    172. D(H  20,C  16,C  13,C  12)    -73.5305         0.011587   
    173. D(C  19,C  16,C  13,H  18)    -72.6131         0.011587   
    174. D(C  19,C  16,C  13,H  17)    168.7732         0.011587   
    175. D(H  20,C  16,C  13,H  18)    166.0912         0.011587   
    176. D(C  19,C  16,C  13,C  12)     47.7652         0.011587   
    177. D(C  23,C  19,C  16,H  20)    -79.9691         0.011979   
    178. D(C   8,C  19,C  16,H  21)   -143.4990         0.011979   
    179. D(C   8,C  19,C  16,H  20)    100.2775         0.011979   
    180. D(C   8,C  19,C  16,C  13)    -21.0490         0.011979   
    181. D(C  23,C  19,C   8,N   9)   -178.5093         0.021502   
    182. D(C  23,C  19,C   8,C   5)      0.6181         0.021502   
    183. D(C  23,C  19,C  16,C  13)    158.7044         0.011979   
    184. D(C  16,C  19,C   8,N   9)      1.2503         0.021502   
    185. D(C  16,C  19,C   8,C   5)   -179.6222         0.021502   
    186. D(H  40,C  22,C   5,C   8)   -179.2625         0.031031   
    187. D(H  40,C  22,C   5,C   2)      1.4809         0.031031   
    188. D(C  24,C  22,C   5,C   8)      1.2331         0.031031   
    189. D(C  24,C  22,C   5,C   2)   -178.0234         0.031031   
    190. D(O  25,C  23,C  19,C   8)   -179.2697         0.028277   
    191. D(C  24,C  23,C  19,C  16)   -179.1582         0.028277   
    192. D(C  24,C  23,C  19,C   8)      0.6035         0.028277   
    193. D(O  25,C  23,C  19,C  16)      0.9686         0.028277   
    194. D(C  27,C  24,C  23,O  25)     -0.5019         0.024575   
    195. D(C  27,C  24,C  23,C  19)    179.6274         0.024575   
    196. D(C  22,C  24,C  23,O  25)    178.9676         0.024575   
    197. D(C  22,C  24,C  23,C  19)     -0.9031         0.024575   
    198. D(C  27,C  24,C  22,H  40)     -0.1278         0.023680   
    199. D(C  27,C  24,C  22,C   5)    179.3804         0.023680   
    200. D(C  23,C  24,C  22,H  40)   -179.5606         0.023680   
    201. D(C  23,C  24,C  22,C   5)     -0.0524         0.023680   
    202. D(C  26,O  25,C  23,C  24)      0.6952         0.026051   
    203. D(C  26,O  25,C  23,C  19)   -179.4260         0.026051   
    204. D(O  29,C  26,O  25,C  23)    178.8840         0.024112   
    205. D(C  28,C  26,O  25,C  23)     -0.5199         0.024112   
    206. D(H  41,C  27,C  24,C  23)    179.2256         0.022678   
    207. D(H  41,C  27,C  24,C  22)     -0.2018         0.022678   
    208. D(C  28,C  27,C  24,C  23)      0.1849         0.022678   
    209. D(C  28,C  27,C  24,C  22)   -179.2425         0.022678   
    210. D(C  30,C  28,C  27,H  41)      2.2855         0.031681   
    211. D(C  30,C  28,C  27,C  24)   -178.6878         0.031681   
    212. D(C  26,C  28,C  27,H  41)   -179.0484         0.031681   
    213. D(C  26,C  28,C  27,C  24)     -0.0217         0.031681   
    214. D(C  30,C  28,C  26,O  29)     -0.4555         0.017116   
    215. D(C  30,C  28,C  26,O  25)    178.8730         0.017116   
    216. D(C  27,C  28,C  26,O  29)   -179.1571         0.017116   
    217. D(C  27,C  28,C  26,O  25)      0.1715         0.017116   
    218. D(C  32,C  30,C  28,C  27)     40.5671         0.014066   
    219. D(C  32,C  30,C  28,C  26)   -138.0908         0.014066   
    220. D(C  31,C  30,C  28,C  27)   -138.6381         0.014066   
    221. D(C  31,C  30,C  28,C  26)     42.7039         0.014066   
    222. D(H  39,C  31,C  30,C  32)    179.8536         0.025362   
    223. D(H  39,C  31,C  30,C  28)     -0.9153         0.025362   
    224. D(C  35,C  31,C  30,C  32)     -0.7624         0.025362   
    225. D(C  35,C  31,C  30,C  28)    178.4687         0.025362   
    226. D(H  36,C  32,C  30,C  31)   -178.2162         0.024906   
    227. D(H  36,C  32,C  30,C  28)      2.5299         0.024906   
    228. D(N  33,C  32,C  30,C  31)      0.9507         0.024906   
    229. D(N  33,C  32,C  30,C  28)   -178.3032         0.024906   
    230. D(C  34,N  33,C  32,H  36)    178.7277         0.035280   
    231. D(C  34,N  33,C  32,C  30)     -0.4656         0.035280   
    232. D(H  38,C  34,N  33,C  32)    179.9985         0.034518   
    233. D(C  35,C  34,N  33,C  32)     -0.2116         0.034518   
    234. D(H  37,C  35,C  34,H  38)     -0.2302         0.027230   
    235. D(H  37,C  35,C  34,N  33)    179.9881         0.027230   
    236. D(C  31,C  35,C  34,H  38)   -179.8664         0.027230   
    237. D(C  31,C  35,C  34,N  33)      0.3518         0.027230   
    238. D(H  37,C  35,C  31,H  39)     -0.0826         0.027816   
    239. D(H  37,C  35,C  31,C  30)   -179.4660         0.027816   
    240. D(C  34,C  35,C  31,H  39)    179.5513         0.027816   
    241. D(C  34,C  35,C  31,C  30)      0.1679         0.027816   
    -----------------------------------------------------------------

Number of atoms                         .... 42
Number of degrees of freedom            .... 241


         *************************************************************
         *                GEOMETRY OPTIMIZATION CYCLE   1            *
         *************************************************************
---------------------------------
CARTESIAN COORDINATES (ANGSTROEM)
---------------------------------
  C     -6.556900   -1.501750   -0.084475
  C     -6.558611   -2.659523   -1.067378
  C     -5.558198   -3.713399   -0.608906
  H     -6.294088   -2.292834   -2.062853
  H     -7.563868   -3.079265   -1.126801
  C     -4.204012   -3.101163   -0.337027
  H     -5.458499   -4.509354   -1.348843
  H     -5.934171   -4.183372    0.306645
  C     -4.099273   -1.719738    0.030256
  N     -5.218889   -0.933474    0.073890
  H     -6.943804   -1.834079    0.888443
  H     -7.209482   -0.701061   -0.434570
  C     -5.162650    0.411024    0.643572
  C     -3.867508    1.110765    0.270976
  H     -5.267134    0.363222    1.736056
  H     -6.020278    0.963878    0.259725
  C     -2.673014    0.282320    0.729894
  H     -3.844876    2.100375    0.729466
  H     -3.834010    1.249362   -0.812785
  C     -2.827044   -1.165885    0.330522
  H     -2.572281    0.353898    1.818438
  H     -1.749356    0.684275    0.312515
  C     -3.066357   -3.863932   -0.424061
  C     -1.721072   -1.993661    0.242088
  C     -1.791389   -3.341376   -0.138898
  O     -0.501252   -1.446111    0.550600
  C      0.690739   -2.143685    0.497355
  C     -0.590335   -4.082682   -0.199872
  C      0.629593   -3.537093    0.101052
  O      1.689980   -1.506828    0.781870
  C      1.879527   -4.317584    0.005077
  C      2.901327   -4.240108    0.956368
  C      2.080379   -5.198469   -1.065103
  N      3.161002   -5.965921   -1.215769
  C      4.118426   -5.880213   -0.286960
  C      4.030427   -5.030904    0.808720
  H      1.329792   -5.273296   -1.845142
  H      4.831159   -4.995625    1.535735
  H      4.988825   -6.511986   -0.427164
  H      2.806456   -3.576825    1.804109
  H     -3.146000   -4.905794   -0.713746
  H     -0.651962   -5.127480   -0.482559

----------------------------
CARTESIAN COORDINATES (A.U.)
----------------------------
  NO LB      ZA    FRAG     MASS         X           Y           Z
   0 C     6.0000    0    12.011  -12.390745   -2.837897   -0.159635
   1 C     6.0000    0    12.011  -12.393980   -5.025769   -2.017052
   2 C     6.0000    0    12.011  -10.503473   -7.017308   -1.150665
   3 H     1.0000    0     1.008  -11.894102   -4.332827   -3.898227
   4 H     1.0000    0     1.008  -14.293638   -5.818967   -2.129345
   5 C     6.0000    0    12.011   -7.944431   -5.860349   -0.636889
   6 H     1.0000    0     1.008  -10.315068   -8.521444   -2.548944
   7 H     1.0000    0     1.008  -11.213959   -7.905427    0.579475
   8 C     6.0000    0    12.011   -7.746504   -3.249834    0.057175
   9 N     7.0000    0    14.007   -9.862272   -1.764010    0.139632
  10 H     1.0000    0     1.008  -13.121888   -3.465906    1.678914
  11 H     1.0000    0     1.008  -13.623947   -1.324814   -0.821218
  12 C     6.0000    0    12.011   -9.755995    0.776724    1.216175
  13 C     6.0000    0    12.011   -7.308530    2.099042    0.512070
  14 H     1.0000    0     1.008   -9.953440    0.686389    3.280671
  15 H     1.0000    0     1.008  -11.376677    1.821466    0.490808
  16 C     6.0000    0    12.011   -5.051265    0.533508    1.379301
  17 H     1.0000    0     1.008   -7.265762    3.969134    1.378491
  18 H     1.0000    0     1.008   -7.245230    2.360952   -1.535942
  19 C     6.0000    0    12.011   -5.342339   -2.203203    0.624596
  20 H     1.0000    0     1.008   -4.860906    0.668770    3.436349
  21 H     1.0000    0     1.008   -3.305803    1.293093    0.590568
  22 C     6.0000    0    12.011   -5.794576   -7.301774   -0.801358
  23 C     6.0000    0    12.011   -3.252354   -3.767473    0.457480
  24 C     6.0000    0    12.011   -3.385235   -6.314285   -0.262478
  25 O     8.0000    0    15.999   -0.947229   -2.732754    1.040483
  26 C     6.0000    0    12.011    1.305307   -4.050977    0.939865
  27 C     6.0000    0    12.011   -1.115572   -7.715152   -0.377702
  28 C     6.0000    0    12.011    1.189759   -6.684136    0.190961
  29 O     8.0000    0    15.999    3.193600   -2.847492    1.477521
  30 C     6.0000    0    12.011    3.551791   -8.159052    0.009594
  31 C     6.0000    0    12.011    5.482714   -8.012643    1.807273
  32 C     6.0000    0    12.011    3.931347   -9.823683   -2.012752
  33 N     7.0000    0    14.007    5.973428  -11.273956   -2.297470
  34 C     6.0000    0    12.011    7.782698  -11.111993   -0.542277
  35 C     6.0000    0    12.011    7.616403   -9.507032    1.528259
  36 H     1.0000    0     1.008    2.512942   -9.965086   -3.486813
  37 H     1.0000    0     1.008    9.129568   -9.440363    2.902118
  38 H     1.0000    0     1.008    9.427514  -12.305871   -0.807223
  39 H     1.0000    0     1.008    5.303434   -6.759220    3.409271
  40 H     1.0000    0     1.008   -5.945078   -9.270607   -1.348785
  41 H     1.0000    0     1.008   -1.232029   -9.689534   -0.911905

--------------------------------
INTERNAL COORDINATES (ANGSTROEM)
--------------------------------
 C      0   0   0     0.000000000000     0.00000000     0.00000000
 C      1   0   0     1.518728657820     0.00000000     0.00000000
 C      2   1   0     1.523705730154   109.37770830     0.00000000
 H      2   1   3     1.093345231639   109.46981550   239.03089272
 H      2   1   3     1.090987699170   109.24356852   121.44352070
 C      3   2   1     1.510818247055   111.24533379   308.44070533
 H      3   2   1     1.091325237552   111.12639632   186.00599079
 H      3   2   1     1.095656630252   108.83300475    68.96157900
 C      6   3   2     1.433248817088   120.14557213    26.14161939
 N      9   6   3     1.368815261965   120.13491259   356.86833765
 H      1   2   3     1.098502197905   110.00949906   293.82228882
 H      1   2   3     1.090657330576   110.56285774   175.61484437
 C     10   9   6     1.461292594908   120.62720034   170.39058044
 C     13  10   9     1.518505455618   111.17061632    38.87010346
 H     13  10   9     1.098509539892   110.12142980   276.44901307
 H     13  10   9     1.090189394231   107.40037640   159.91411428
 C     14  13  10     1.524382575464   110.12248842   302.98980751
 H     14  13  10     1.090895973428   109.42620731   181.34056253
 H     14  13  10     1.093100621924   109.13758630    63.93606275
 C      9   6   3     1.419676185516   119.71641232   177.74078291
 H     17  14  13     1.095535016227   109.61351272   286.46952685
 H     17  14  13     1.090375394446   110.37735813   169.87935418
 C      6   3   2     1.372461142868   120.42108553   205.39282129
 C     20   9   6     1.384271885843   117.98075505     0.61814179
 C     24  20   9     1.402294579532   123.50468311     0.60353308
 O     24  20   9     1.372206567211   117.21000320   180.73033317
 C     26  24  20     1.382130666024   123.82098950   180.57399544
 C     25  24  20     1.412722002618   118.25571280   179.62740865
 C     28  25  24     1.369835655046   122.59207896     0.18491030
 O     27  26  24     1.218613920130   115.74825567   178.88401471
 C     29  28  25     1.476723575682   121.93867003   181.31218129
 C     31  29  28     1.398224749526   123.02800723   221.36191126
 C     31  29  28     1.400565642746   120.22936605    40.56714894
 N     33  31  29     1.333951805562   124.35543956   181.69676739
 C     34  33  31     1.336672063148   117.70215495   359.53443309
 C     32  31  29     1.386371102666   119.41337601   178.46871491
 H     33  31  29     1.085099840294   119.56831551     2.52992366
 H     36  32  31     1.082112613646   120.83086915   180.53400522
 H     35  34  33     1.084614440324   116.59215474   179.99846116
 H     32  31  29     1.080560094188   120.23959239   359.08469059
 H     23   6   3     1.084313720097   119.34497173     1.48092460
 H     28  25  24     1.084118529501   117.94546653   179.22556833

---------------------------
INTERNAL COORDINATES (A.U.)
---------------------------
 C      0   0   0     0.000000000000     0.00000000     0.00000000
 C      1   0   0     2.869981235017     0.00000000     0.00000000
 C      2   1   0     2.879386538677   109.37770830     0.00000000
 H      2   1   3     2.066123057627   109.46981550   239.03089272
 H      2   1   3     2.061667966909   109.24356852   121.44352070
 C      3   2   1     2.855032725065   111.24533379   308.44070533
 H      3   2   1     2.062305822010   111.12639632   186.00599079
 H      3   2   1     2.070490967992   108.83300475    68.96157900
 C      6   3   2     2.708447746062   120.14557213    26.14161939
 N      9   6   3     2.586685973046   120.13491259   356.86833765
 H      1   2   3     2.075868311552   110.00949906   293.82228882
 H      1   2   3     2.061043660743   110.56285774   175.61484437
 C     10   9   6     2.761442805902   120.62720034   170.39058044
 C     13  10   9     2.869559443983   111.17061632    38.87010346
 H     13  10   9     2.075882185896   110.12142980   276.44901307
 H     13  10   9     2.060159389201   107.40037640   159.91411428
 C     14  13  10     2.880665590948   110.12248842   302.98980751
 H     14  13  10     2.061494630376   109.42620731   181.34056253
 H     14  13  10     2.065660812256   109.13758630    63.93606275
 C      9   6   3     2.682799189476   119.71641232   177.74078291
 H     17  14  13     2.070261150791   109.61351272   286.46952685
 H     17  14  13     2.060510878670   110.37735813   169.87935418
 C      6   3   2     2.593575689470   120.42108553   205.39282129
 C     20   9   6     2.615894759129   117.98075505     0.61814179
 C     24  20   9     2.649952714397   123.50468311     0.60353308
 O     24  20   9     2.593094611196   117.21000320   180.73033317
 C     26  24  20     2.611848440079   123.82098950   180.57399544
 C     25  24  20     2.669657688312   118.25571280   179.62740865
 C     28  25  24     2.588614236518   122.59207896     0.18491030
 O     27  26  24     2.302846572030   115.74825567   178.88401471
 C     29  28  25     2.790603133544   121.93867003   181.31218129
 C     31  29  28     2.642261850274   123.02800723   221.36191126
 C     31  29  28     2.646685497370   120.22936605    40.56714894
 N     33  31  29     2.520803588361   124.35543956   181.69676739
 C     34  33  31     2.525944130214   117.70215495   359.53443309
 C     32  31  29     2.619861704022   119.41337601   178.46871491
 H     33  31  29     2.050541526117   119.56831551     2.52992366
 H     36  32  31     2.044896485852   120.83086915   180.53400522
 H     35  34  33     2.049624253109   116.59215474   179.99846116
 H     32  31  29     2.041962649260   120.23959239   359.08469059
 H     23   6   3     2.049055974237   119.34497173     1.48092460
 H     28  25  24     2.048687117466   117.94546653   179.22556833

---------------------
BASIS SET INFORMATION
---------------------
There are 4 groups of distinct atoms

 Group   1 Type C   : 11s6p2d contracted to 5s3p2d pattern {62111/411/11}
 Group   2 Type H   : 5s1p contracted to 3s1p pattern {311/1}
 Group   3 Type N   : 11s6p2d contracted to 5s3p2d pattern {62111/411/11}
 Group   4 Type O   : 11s6p2d contracted to 5s3p2d pattern {62111/411/11}

Atom   0C    basis set group =>   1
Atom   1C    basis set group =>   1
Atom   2C    basis set group =>   1
Atom   3H    basis set group =>   2
Atom   4H    basis set group =>   2
Atom   5C    basis set group =>   1
Atom   6H    basis set group =>   2
Atom   7H    basis set group =>   2
Atom   8C    basis set group =>   1
Atom   9N    basis set group =>   3
Atom  10H    basis set group =>   2
Atom  11H    basis set group =>   2
Atom  12C    basis set group =>   1
Atom  13C    basis set group =>   1
Atom  14H    basis set group =>   2
Atom  15H    basis set group =>   2
Atom  16C    basis set group =>   1
Atom  17H    basis set group =>   2
Atom  18H    basis set group =>   2
Atom  19C    basis set group =>   1
Atom  20H    basis set group =>   2
Atom  21H    basis set group =>   2
Atom  22C    basis set group =>   1
Atom  23C    basis set group =>   1
Atom  24C    basis set group =>   1
Atom  25O    basis set group =>   4
Atom  26C    basis set group =>   1
Atom  27C    basis set group =>   1
Atom  28C    basis set group =>   1
Atom  29O    basis set group =>   4
Atom  30C    basis set group =>   1
Atom  31C    basis set group =>   1
Atom  32C    basis set group =>   1
Atom  33N    basis set group =>   3
Atom  34C    basis set group =>   1
Atom  35C    basis set group =>   1
Atom  36H    basis set group =>   2
Atom  37H    basis set group =>   2
Atom  38H    basis set group =>   2
Atom  39H    basis set group =>   2
Atom  40H    basis set group =>   2
Atom  41H    basis set group =>   2
---------------------------------
AUXILIARY/J BASIS SET INFORMATION
---------------------------------
There are 4 groups of distinct atoms

 Group   1 Type C   : 12s5p4d2f1g contracted to 6s4p3d1f1g pattern {711111/2111/211/2/1}
 Group   2 Type H   : 5s2p1d contracted to 3s1p1d pattern {311/2/1}
 Group   3 Type N   : 12s5p4d2f1g contracted to 6s4p3d1f1g pattern {711111/2111/211/2/1}
 Group   4 Type O   : 12s5p4d2f1g contracted to 6s4p3d1f1g pattern {711111/2111/211/2/1}

Atom   0C    basis set group =>   1
Atom   1C    basis set group =>   1
Atom   2C    basis set group =>   1
Atom   3H    basis set group =>   2
Atom   4H    basis set group =>   2
Atom   5C    basis set group =>   1
Atom   6H    basis set group =>   2
Atom   7H    basis set group =>   2
Atom   8C    basis set group =>   1
Atom   9N    basis set group =>   3
Atom  10H    basis set group =>   2
Atom  11H    basis set group =>   2
Atom  12C    basis set group =>   1
Atom  13C    basis set group =>   1
Atom  14H    basis set group =>   2
Atom  15H    basis set group =>   2
Atom  16C    basis set group =>   1
Atom  17H    basis set group =>   2
Atom  18H    basis set group =>   2
Atom  19C    basis set group =>   1
Atom  20H    basis set group =>   2
Atom  21H    basis set group =>   2
Atom  22C    basis set group =>   1
Atom  23C    basis set group =>   1
Atom  24C    basis set group =>   1
Atom  25O    basis set group =>   4
Atom  26C    basis set group =>   1
Atom  27C    basis set group =>   1
Atom  28C    basis set group =>   1
Atom  29O    basis set group =>   4
Atom  30C    basis set group =>   1
Atom  31C    basis set group =>   1
Atom  32C    basis set group =>   1
Atom  33N    basis set group =>   3
Atom  34C    basis set group =>   1
Atom  35C    basis set group =>   1
Atom  36H    basis set group =>   2
Atom  37H    basis set group =>   2
Atom  38H    basis set group =>   2
Atom  39H    basis set group =>   2
Atom  40H    basis set group =>   2
Atom  41H    basis set group =>   2
---------------------------------
AUXILIARY/C BASIS SET INFORMATION
---------------------------------
There are 4 groups of distinct atoms

 Group   1 Type C   : 8s6p5d3f1g contracted to 8s6p4d3f1g pattern {11111111/111111/2111/111/1}
 Group   2 Type H   : 4s3p2d contracted to 4s2p1d pattern {1111/21/2}
 Group   3 Type N   : 8s6p5d3f1g contracted to 8s6p4d3f1g pattern {11111111/111111/2111/111/1}
 Group   4 Type O   : 8s6p5d3f1g contracted to 8s6p4d3f1g pattern {11111111/111111/2111/111/1}

Atom   0C    basis set group =>   1
Atom   1C    basis set group =>   1
Atom   2C    basis set group =>   1
Atom   3H    basis set group =>   2
Atom   4H    basis set group =>   2
Atom   5C    basis set group =>   1
Atom   6H    basis set group =>   2
Atom   7H    basis set group =>   2
Atom   8C    basis set group =>   1
Atom   9N    basis set group =>   3
Atom  10H    basis set group =>   2
Atom  11H    basis set group =>   2
Atom  12C    basis set group =>   1
Atom  13C    basis set group =>   1
Atom  14H    basis set group =>   2
Atom  15H    basis set group =>   2
Atom  16C    basis set group =>   1
Atom  17H    basis set group =>   2
Atom  18H    basis set group =>   2
Atom  19C    basis set group =>   1
Atom  20H    basis set group =>   2
Atom  21H    basis set group =>   2
Atom  22C    basis set group =>   1
Atom  23C    basis set group =>   1
Atom  24C    basis set group =>   1
Atom  25O    basis set group =>   4
Atom  26C    basis set group =>   1
Atom  27C    basis set group =>   1
Atom  28C    basis set group =>   1
Atom  29O    basis set group =>   4
Atom  30C    basis set group =>   1
Atom  31C    basis set group =>   1
Atom  32C    basis set group =>   1
Atom  33N    basis set group =>   3
Atom  34C    basis set group =>   1
Atom  35C    basis set group =>   1
Atom  36H    basis set group =>   2
Atom  37H    basis set group =>   2
Atom  38H    basis set group =>   2
Atom  39H    basis set group =>   2
Atom  40H    basis set group =>   2
Atom  41H    basis set group =>   2
------------------------------------------------------------------------------
                             ORCA STARTUP CALCULATIONS
                           -- RI-GTO INTEGRALS CHOSEN --
------------------------------------------------------------------------------
------------------------------------------------------------------------------
                   ___                                                        
                  /   \      - P O W E R E D   B Y -                         
                 /     \                                                     
                 |  |  |   _    _      __       _____    __    __             
                 |  |  |  | |  | |    /  \     |  _  \  |  |  /  |          
                  \  \/   | |  | |   /    \    | | | |  |  | /  /          
                 / \  \   | |__| |  /  /\  \   | |_| |  |  |/  /          
                |  |  |   |  __  | /  /__\  \  |    /   |      \           
                |  |  |   | |  | | |   __   |  |    \   |  |\   \          
                \     /   | |  | | |  |  |  |  | |\  \  |  | \   \       
                 \___/    |_|  |_| |__|  |__|  |_| \__\ |__|  \__/        
                                                                              
                      - O R C A' S   B I G   F R I E N D -                    
                                      &                                       
                       - I N T E G R A L  F E E D E R -                       
                                                                              
 v1 FN, 2020, v2 2021, v3 2022-2024                                           
------------------------------------------------------------------------------


----------------------
SHARK INTEGRAL PACKAGE
----------------------

Number of atoms                             ...     42
Number of basis functions                   ...    684
Number of shells                            ...    312
Maximum angular momentum                    ...      2
Integral batch strategy                     ... SHARK/LIBINT Hybrid
RI-J (if used) integral strategy            ... SPLIT-RIJ (Revised 2003 algorithm where possible)
Printlevel                                  ...      1
Contraction scheme used                     ... SEGMENTED contraction
Prescreening option                         ... SCHWARTZ
   Thresh                                   ... 2.500e-11
   Tcut                                     ... 2.500e-12
   Tpresel                                  ... 2.500e-12 
Coulomb Range Separation                    ... NOT USED
Exchange Range Separation                   ... NOT USED
Multipole approximations                    ... NOT USED
Finite Nucleus Model                        ... NOT USED
CABS basis                                  ... NOT available
Auxiliary Coulomb fitting basis             ... AVAILABLE
   # of basis functions in Aux-J            ...   1374
   # of shells in Aux-J                     ...    450
   Maximum angular momentum in Aux-J        ...      4
Auxiliary J/K fitting basis                 ... NOT available
Auxiliary Correlation fitting basis         ... AVAILABLE
   # of basis functions in Aux-C            ...   2094
   # of shells in Aux-C                     ...    654
   Maximum angular momentum in Aux-C        ...      4
Auxiliary 'external' fitting basis          ... NOT available

Checking pre-screening integrals            ... done (  0.0 sec) Dimension = 312
Check shell pair data                       ... done (  0.0 sec)
Shell pair information
Shell pair cut-off parameter TPreSel        ...   2.5e-12
Total number of shell pairs                 ...     48828
Shell pairs after pre-screening             ...     32410
Total number of primitive shell pairs       ...    159912
Primitive shell pairs kept                  ...     69719
          la=0 lb=0:   9544 shell pairs
          la=1 lb=0:  10762 shell pairs
          la=1 lb=1:   3028 shell pairs
          la=2 lb=0:   5314 shell pairs
          la=2 lb=1:   3007 shell pairs
          la=2 lb=2:    755 shell pairs

Calculating one electron integrals          ... done (  0.1 sec)
Calculating RI/J V-Matrix + Cholesky decomp.... done (  0.4 sec)
Calculating RI/C V-Matrix + Cholesky decomp.... done (  1.0 sec)
Calculating Nuclear repulsion               ... done (  0.0 sec) ENN=   1941.960238750557 Eh

Diagonalization of the overlap matrix:
Smallest eigenvalue                        ... 3.442e-06
Time for diagonalization                   ...    0.042 sec
Threshold for overlap eigenvalues          ... 1.000e-07
Number of eigenvalues below threshold      ... 0
Time for construction of square roots      ...    0.109 sec
Total time needed                          ...    0.173 sec

-------------------
DFT GRID GENERATION
-------------------

General Integration Accuracy     IntAcc      ... 4.388
Radial Grid Type                 RadialGrid  ... OptM3 with GC (2021)
Angular Grid (max. ang.)         AngularGrid ... 4 (Lebedev-302)
Angular grid pruning method      GridPruning ... 4 (adaptive)
Weight generation scheme         WeightScheme... mBecke (2022)
Basis function cutoff            BFCut       ... 1.0000e-11
Integration weight cutoff        WCut        ... 1.0000e-14
Partially contracted basis set               ... off
Rotationally invariant grid construction     ... off
Angular grids for H and He will be reduced by one unit

Total number of grid points                  ...   200271
Total number of batches                      ...     3149
Average number of points per batch           ...       63
Average number of grid points per atom       ...     4768

--------------------
COSX GRID GENERATION
--------------------

GRIDX 1
-------
General Integration Accuracy     IntAcc      ... 3.816
Radial Grid Type                 RadialGrid  ... OptM3 with GC (2021)
Angular Grid (max. ang.)         AngularGrid ... 1 (Lebedev-50)
Angular grid pruning method      GridPruning ... 4 (adaptive)
Weight generation scheme         WeightScheme... mBecke (2022)
Basis function cutoff            BFCut       ... 1.0000e-11
Integration weight cutoff        WCut        ... 1.0000e-14
Partially contracted basis set               ... on
Rotationally invariant grid construction     ... off
Angular grids for H and He will be reduced by one unit

Total number of grid points                  ...    25400
Total number of batches                      ...      225
Average number of points per batch           ...      112
Average number of grid points per atom       ...      605
UseSFitting                                  ... on

GRIDX 2
-------
General Integration Accuracy     IntAcc      ... 4.020
Radial Grid Type                 RadialGrid  ... OptM3 with GC (2021)
Angular Grid (max. ang.)         AngularGrid ... 2 (Lebedev-110)
Angular grid pruning method      GridPruning ... 4 (adaptive)
Weight generation scheme         WeightScheme... mBecke (2022)
Basis function cutoff            BFCut       ... 1.0000e-11
Integration weight cutoff        WCut        ... 1.0000e-14
Partially contracted basis set               ... on
Rotationally invariant grid construction     ... off
Angular grids for H and He will be reduced by one unit

Total number of grid points                  ...    55265
Total number of batches                      ...      454
Average number of points per batch           ...      121
Average number of grid points per atom       ...     1316
UseSFitting                                  ... on

GRIDX 3
-------
General Integration Accuracy     IntAcc      ... 4.338
Radial Grid Type                 RadialGrid  ... OptM3 with GC (2021)
Angular Grid (max. ang.)         AngularGrid ... 3 (Lebedev-194)
Angular grid pruning method      GridPruning ... 4 (adaptive)
Weight generation scheme         WeightScheme... mBecke (2022)
Basis function cutoff            BFCut       ... 1.0000e-11
Integration weight cutoff        WCut        ... 1.0000e-14
Partially contracted basis set               ... on
Rotationally invariant grid construction     ... off
Angular grids for H and He will be reduced by one unit

Total number of grid points                  ...   120880
Total number of batches                      ...      968
Average number of points per batch           ...      124
Average number of grid points per atom       ...     2878
UseSFitting                                  ... on
Initializing property integral containers    ... done (  0.1 sec)

SHARK setup successfully completed in   7.4 seconds

Maximum memory used throughout the entire STARTUP-calculation: 136.1 MB
-------------------------------------------------------------------------------
                                 ORCA GUESS
                   Start orbitals & Density for SCF / CASSCF
-------------------------------------------------------------------------------

------------
SCF SETTINGS
------------
Hamiltonian:
 Density Functional     Method          .... DFT(GTOs)
 Exchange Functional    Exchange        .... B88
   X-Alpha parameter    XAlpha          ....  0.666667
   Becke's b parameter  XBeta           ....  0.004200
 Correlation Functional Correlation     .... LYP
 LDA part of GGA corr.  LDAOpt          .... VWN-5
 Gradients option       PostSCFGGA      .... off
 Hybrid DFT is turned on
   Fraction HF Exchange ScalHFX         ....  0.200000
   Scaling of DF-GGA-X  ScalDFX         ....  0.720000
   Scaling of DF-GGA-C  ScalDFC         ....  0.810000
   Scaling of DF-LDA-C  ScalLDAC        ....  1.000000
   Perturbative correction              ....  0.000000
   NL short-range parameter             ....  4.800000
 RI-approximation to the Coulomb term is turned on
   Number of AuxJ basis functions       .... 1374
   RIJ-COSX (HFX calculated with COS-X)).... on


General Settings:
 Integral files         IntName         .... NMU-1
 Hartree-Fock type      HFTyp           .... RHF
 Total Charge           Charge          ....    0
 Multiplicity           Mult            ....    1
 Number of Electrons    NEL             ....  168
 Basis Dimension        Dim             ....  684
 Nuclear Repulsion      ENuc            ....   1941.9602387506 Eh

Convergence Acceleration:
 AO-DIIS                CNVDIIS         .... on
   Start iteration      DIISMaxIt       ....    12
   Startup error        DIISStart       ....  0.200000
   # of expansion vecs  DIISMaxEq       ....     5
   Bias factor          DIISBfac        ....   1.050
   Max. coefficient     DIISMaxC        ....  10.000
 MO-DIIS                CNVKDIIS        .... off
 Trust-Rad. Augm. Hess. CNVTRAH         .... auto
   Auto Start mean grad. ratio tolernc. ....  1.125000
   Auto Start start iteration           ....    50
   Auto Start num. interpolation iter.  ....    10
   Max. Number of Micro iterations      ....    24
   Max. Number of Macro iterations      .... Maxiter - #DIIS iter
   Number of Davidson start vectors     ....     2
   Converg. threshold    (grad. norm)   ....   1.000e-05
   Grad. Scal. Fac. for Micro threshold ....   0.100
   Minimum threshold for Micro iter.    ....   1.000e-02
   NR start threshold (gradient norm)   ....   1.000e-04
   Initial trust radius                 ....   0.400
   Minimum AH scaling param. (alpha)    ....   1.000
   Maximum AH scaling param. (alpha)    .... 1000.000
   Quad. conv. algorithm                .... NR
   White noise on init. David. guess    .... on
   Maximum white noise                  ....   0.010
   Pseudo random numbers                .... off
   Inactive MOs                         .... canonical
   Orbital update algorithm             .... Taylor
   Preconditioner                       .... Diag
   Full preconditioner red. dimension   ....   250
 SOSCF                  CNVSOSCF        .... on
   Start iteration      SOSCFMaxIt      ....   150
   Startup grad/error   SOSCFStart      ....  0.003300
   Hessian update       SOSCFHessUp     .... L-BFGS
 Level Shifting         CNVShift        .... on
   Level shift para.    LevelShift      ....    0.2500
   Turn off err/grad.   ShiftErr        ....    0.0010
 Zerner damping         CNVZerner       .... off
 Static damping         CNVDamp         .... on
   Fraction old density DampFac         ....    0.7000
   Max. Damping (<1)    DampMax         ....    0.9800
   Min. Damping (>=0)   DampMin         ....    0.0000
   Turn off err/grad.   DampErr         ....    0.1000

SCF Procedure:
 Maximum # iterations   MaxIter         ....   125
 SCF integral mode      SCFMode         .... Direct
   Integral package                     .... SHARK and LIBINT hybrid scheme
 Reset frequency        DirectResetFreq ....    20
 Integral Threshold     Thresh          ....  2.500e-11 Eh
 Primitive CutOff       TCut            ....  2.500e-12 Eh

Convergence Tolerance:
 Convergence Check Mode ConvCheckMode   .... Total+1el-Energy
 Convergence forced     ConvForced      .... 0
 Energy Change          TolE            ....  1.000e-08 Eh
 1-El. energy change                    ....  1.000e-05 Eh
 Orbital Gradient       TolG            ....  1.000e-05
 Orbital Rotation angle TolX            ....  1.000e-05
 DIIS Error             TolErr          ....  5.000e-07

------------------------------
INITIAL GUESS: MODEL POTENTIAL
------------------------------
Loading Hartree-Fock densities                     ... done
Calculating cut-offs                               ... done
Initializing the effective Hamiltonian             ... done
Setting up the integral package (SHARK)            ... done
Starting the Coulomb interaction                   ... done (   1.3 sec)
Making the grid                                    ... done (   0.5 sec)
Mapping shells                                     ... done
Starting the XC term evaluation                    ... done (   0.7 sec)
  promolecular density results
     # of electrons  =    167.995119539
     EX              =   -137.875656710
     EC              =     -5.739091402
     EX+EC           =   -143.614748112
Transforming the Hamiltonian                       ... done (   0.0 sec)
Diagonalizing the Hamiltonian                      ... done (   0.0 sec)
Back transforming the eigenvectors                 ... done (   0.1 sec)
Now organizing SCF variables                       ... done
                      ------------------
                      INITIAL GUESS DONE (   2.8 sec)
                      ------------------
             **** ENERGY FILE WAS UPDATED (NMU-1.en.tmp) ****
Finished Guess after   3.4 sec
Maximum memory used throughout the entire GUESS-calculation: 90.4 MB

-------------------------------------------------------------------------------------------
                                      ORCA LEAN-SCF
                              memory conserving SCF solver
-------------------------------------------------------------------------------------------

--------------------
CPCM SOLVATION MODEL
--------------------
CPCM parameters:
  Epsilon                                         ...      80.1510
  Refrac                                          ...       1.3328
  Rsolv                                           ...       1.3000
  Surface type                                    ... GAUSSIAN VDW
  Discretization scheme                           ... Constant charge density
    Threshold for H atoms                         ...       5.0000 (charges/Ang^2)
    Threshold for non-H atoms                     ...       5.0000 (charges/Ang^2)
  Epsilon function type                           ...         CPCM
Solvent:                                          ... WATER
Radii:
  Scheme                                          ... Element-dependent radii
  Radius for C  used is    3.8550 Bohr (=   2.0400 Ang.)
  Radius for H  used is    2.4944 Bohr (=   1.3200 Ang.)
  Radius for N  used is    3.5149 Bohr (=   1.8600 Ang.)
  Radius for O  used is    3.4469 Bohr (=   1.8240 Ang.)
Calculating surface                               ...        done! (  0.0s)
Cavity surface points                             ...         3554
Cavity Volume                                     ...    2468.5365
Cavity Surface-area                               ...    1223.9155
Calculating surface distance matrix               ...        done! (  0.0s)
Performing Cholesky decomposition & store         ...        done! (  1.2s)
Overall time for CPCM initialization              ...                 1.2s

----------------------------------------D-I-I-S--------------------------------------------
Iteration    Energy (Eh)           Delta-E    RMSDP     MaxDP     DIISErr   Damp  Time(sec)
-------------------------------------------------------------------------------------------
               ***  Starting incremental Fock matrix formation  ***
    1    -1032.1455284199057587     0.00e+00  1.66e-03  9.96e-02  3.08e-01  0.700  41.6
    2    -1032.3978489668559178    -2.52e-01  1.36e-03  9.42e-02  1.18e-01  0.700  20.7
                               ***Turning on AO-DIIS***
    3    -1032.5018999271467237    -1.04e-01  5.96e-04  2.49e-02  3.92e-02  0.700  20.6
    4    -1032.5649901641293127    -6.31e-02  1.03e-03  4.84e-02  2.07e-02  0.000  19.6
    5    -1032.7014449148948643    -1.36e-01  2.58e-04  1.81e-02  6.70e-03  0.000  20.7
                              *** Initializing SOSCF ***
---------------------------------------S-O-S-C-F--------------------------------------
Iteration    Energy (Eh)           Delta-E    RMSDP     MaxDP     MaxGrad    Time(sec)
--------------------------------------------------------------------------------------
    6    -1032.7022035978086478    -7.59e-04  9.30e-05  8.59e-03  2.17e-03    18.6
               *** Restarting incremental Fock matrix formation ***
    7    -1032.7022413007687192    -3.77e-05  9.57e-05  6.26e-03  2.60e-04    41.7
    8    -1032.7022188208718489     2.25e-05  3.55e-05  3.84e-03  5.83e-04    29.0
    9    -1032.7022537697228017    -3.49e-05  7.95e-06  2.79e-04  5.87e-05    25.9
   10    -1032.7022533911483606     3.79e-07  3.29e-06  1.42e-04  1.18e-04    23.5
   11    -1032.7022540305026723    -6.39e-07  3.09e-06  2.66e-04  1.34e-05    21.0
   12    -1032.7022540198934166     1.06e-08  1.98e-06  1.97e-04  1.97e-05    19.7
   13    -1032.7022540799137005    -6.00e-08  2.17e-06  1.43e-04  3.36e-06    18.1
   14    -1032.7022540869754721    -7.06e-09  1.81e-06  1.42e-04  3.73e-06    16.4
                 **** Energy Check signals convergence ****

               *****************************************************
               *                     SUCCESS                       *
               *           SCF CONVERGED AFTER  14 CYCLES          *
               *****************************************************

Recomputing exchange energy using gridx3       ... done (   67.896 sec)
Old exchange energy                            :    -28.000841095 Eh
New exchange energy                            :    -28.000848115 Eh
Exchange energy change after final integration :     -0.000007021 Eh
Total energy after final integration           :  -1032.702261107 Eh
             **** ENERGY FILE WAS UPDATED (NMU-1.en.tmp) ****

----------------
TOTAL SCF ENERGY
----------------

Total Energy       :      -1032.70226110749400 Eh          -28101.25717 eV

Components:
Nuclear Repulsion  :       1941.96023875055721 Eh           52843.42460 eV
Electronic Energy  :      -2974.63475901257971 Eh          -80943.92690 eV
One Electron Energy:      -5260.06427498219364 Eh         -143133.62570 eV
Two Electron Energy:       2285.42951596961393 Eh           62189.69879 eV
CPCM Dielectric    :         -0.02773382495290 Eh              -0.75468 eV

Virial components:
Potential Energy   :      -2060.95528660670425 Eh          -56081.44447 eV
Kinetic Energy     :       1028.25302549921003 Eh           27980.18731 eV
Virial Ratio       :          2.00432698518550

DFT components:
N(Alpha)           :       83.999841581734 electrons
N(Beta)            :       83.999841581734 electrons
N(Total)           :      167.999683163468 electrons
E(X)               :     -111.279722527911 Eh       
E(C)               :       -6.754702698340 Eh       
E(XC)              :     -118.034425226251 Eh       

CPCM Solvation Model Properties:
Surface-charge          :         -0.03922300748697
Corrected charge        :          0.00000000000000
Outlying charge corr.   :          0.00007914999461 Eh               0.00215 eV
Free-energy (cav+disp)  :  This term is not implemented in the current solvation scheme

---------------
SCF CONVERGENCE
---------------

  Last Energy change         ...    7.0618e-09  Tolerance :   1.0000e-08
  Last MAX-Density change    ...    1.4201e-04  Tolerance :   1.0000e-07
  Last RMS-Density change    ...    1.8123e-06  Tolerance :   5.0000e-09
  Last DIIS Error            ...    2.1732e-03  Tolerance :   5.0000e-07
  Last Orbital Gradient      ...    3.7311e-06  Tolerance :   1.0000e-05
  Last Orbital Rotation      ...    1.0567e-05  Tolerance :   1.0000e-05


----------------
ORBITAL ENERGIES
----------------

  NO   OCC          E(Eh)            E(eV) 
   0   2.0000     -19.191993      -522.2407 
   1   2.0000     -19.109906      -520.0070 
   2   2.0000     -14.340680      -390.2297 
   3   2.0000     -14.318801      -389.6344 
   4   2.0000     -10.305671      -280.4316 
   5   2.0000     -10.243492      -278.7396 
   6   2.0000     -10.226137      -278.2673 
   7   2.0000     -10.207341      -277.7559 
   8   2.0000     -10.205289      -277.7000 
   9   2.0000     -10.200633      -277.5733 
  10   2.0000     -10.198694      -277.5206 
  11   2.0000     -10.198180      -277.5066 
  12   2.0000     -10.196030      -277.4481 
  13   2.0000     -10.193291      -277.3735 
  14   2.0000     -10.188106      -277.2325 
  15   2.0000     -10.181559      -277.0543 
  16   2.0000     -10.179606      -277.0012 
  17   2.0000     -10.179532      -276.9991 
  18   2.0000     -10.179338      -276.9939 
  19   2.0000     -10.176741      -276.9232 
  20   2.0000     -10.170058      -276.7413 
  21   2.0000     -10.168436      -276.6972 
  22   2.0000     -10.165661      -276.6217 
  23   2.0000     -10.165609      -276.6203 
  24   2.0000      -1.118415       -30.4336 
  25   2.0000      -1.029956       -28.0265 
  26   2.0000      -0.964164       -26.2362 
  27   2.0000      -0.948891       -25.8206 
  28   2.0000      -0.867557       -23.6074 
  29   2.0000      -0.842217       -22.9179 
  30   2.0000      -0.824348       -22.4316 
  31   2.0000      -0.803784       -21.8721 
  32   2.0000      -0.778727       -21.1902 
  33   2.0000      -0.770606       -20.9693 
  34   2.0000      -0.761660       -20.7258 
  35   2.0000      -0.744733       -20.2652 
  36   2.0000      -0.689663       -18.7667 
  37   2.0000      -0.678216       -18.4552 
  38   2.0000      -0.660164       -17.9640 
  39   2.0000      -0.640214       -17.4211 
  40   2.0000      -0.634583       -17.2679 
  41   2.0000      -0.627701       -17.0806 
  42   2.0000      -0.618928       -16.8419 
  43   2.0000      -0.595247       -16.1975 
  44   2.0000      -0.560606       -15.2549 
  45   2.0000      -0.538793       -14.6613 
  46   2.0000      -0.531145       -14.4532 
  47   2.0000      -0.524750       -14.2792 
  48   2.0000      -0.506935       -13.7944 
  49   2.0000      -0.492120       -13.3913 
  50   2.0000      -0.487043       -13.2531 
  51   2.0000      -0.474335       -12.9073 
  52   2.0000      -0.471352       -12.8261 
  53   2.0000      -0.468019       -12.7354 
  54   2.0000      -0.462006       -12.5718 
  55   2.0000      -0.449708       -12.2372 
  56   2.0000      -0.445123       -12.1124 
  57   2.0000      -0.435131       -11.8405 
  58   2.0000      -0.431185       -11.7331 
  59   2.0000      -0.428966       -11.6728 
  60   2.0000      -0.421591       -11.4721 
  61   2.0000      -0.414857       -11.2888 
  62   2.0000      -0.406898       -11.0723 
  63   2.0000      -0.405591       -11.0367 
  64   2.0000      -0.404969       -11.0198 
  65   2.0000      -0.398923       -10.8552 
  66   2.0000      -0.395586       -10.7644 
  67   2.0000      -0.375286       -10.2121 
  68   2.0000      -0.371019       -10.0960 
  69   2.0000      -0.361326        -9.8322 
  70   2.0000      -0.355233        -9.6664 
  71   2.0000      -0.349613        -9.5134 
  72   2.0000      -0.340328        -9.2608 
  73   2.0000      -0.337845        -9.1932 
  74   2.0000      -0.333576        -9.0771 
  75   2.0000      -0.320239        -8.7141 
  76   2.0000      -0.315848        -8.5947 
  77   2.0000      -0.298969        -8.1354 
  78   2.0000      -0.288877        -7.8607 
  79   2.0000      -0.280580        -7.6350 
  80   2.0000      -0.268045        -7.2939 
  81   2.0000      -0.252579        -6.8730 
  82   2.0000      -0.237067        -6.4509 
  83   2.0000      -0.191021        -5.1979 
  84   0.0000      -0.067689        -1.8419 
  85   0.0000      -0.034666        -0.9433 
  86   0.0000      -0.022869        -0.6223 
  87   0.0000      -0.007348        -0.2000 
  88   0.0000       0.006220         0.1693 
  89   0.0000       0.038741         1.0542 
  90   0.0000       0.052142         1.4189 
  91   0.0000       0.061708         1.6792 
  92   0.0000       0.067956         1.8492 
  93   0.0000       0.069670         1.8958 
  94   0.0000       0.070214         1.9106 
*Only the first 10 virtual orbitals were printed.

                    ********************************
                    * MULLIKEN POPULATION ANALYSIS *
                    ********************************

-----------------------
MULLIKEN ATOMIC CHARGES
-----------------------
   0 C :   -0.111715
   1 C :   -0.163499
   2 C :   -0.229647
   3 H :    0.100310
   4 H :    0.116927
   5 C :    0.238666
   6 H :    0.125540
   7 H :    0.110055
   8 C :    0.001955
   9 N :   -0.147442
  10 H :    0.104291
  11 H :    0.130326
  12 C :   -0.112294
  13 C :   -0.150776
  14 H :    0.104112
  15 H :    0.131556
  16 C :   -0.273532
  17 H :    0.116809
  18 H :    0.100881
  19 C :    0.098637
  20 H :    0.112547
  21 H :    0.124869
  22 C :   -0.548648
  23 C :    0.081449
  24 C :    0.464252
  25 O :   -0.373952
  26 C :    0.413941
  27 C :   -0.349250
  28 C :    0.184939
  29 O :   -0.565027
  30 C :    0.201274
  31 C :   -0.206959
  32 C :   -0.046298
  33 N :   -0.501722
  34 C :    0.066809
  35 C :   -0.071507
  36 H :    0.131461
  37 H :    0.118506
  38 H :    0.124167
  39 H :    0.122900
  40 H :    0.089477
  41 H :    0.135612
Sum of atomic charges:    0.0000000

--------------------------------
MULLIKEN REDUCED ORBITAL CHARGES
--------------------------------
  0 C s       :     3.157553  s :     3.157553
      pz      :     1.019405  p :     2.845951
      px      :     0.821159
      py      :     1.005387
      dz2     :     0.020967  d :     0.108212
      dxz     :     0.030341
      dyz     :     0.015705
      dx2y2   :     0.016683
      dxy     :     0.024514

  1 C s       :     3.116486  s :     3.116486
      pz      :     0.984669  p :     2.956084
      px      :     1.021859
      py      :     0.949556
      dz2     :     0.020730  d :     0.090928
      dxz     :     0.009190
      dyz     :     0.023500
      dx2y2   :     0.018877
      dxy     :     0.018630

  2 C s       :     3.140765  s :     3.140765
      pz      :     1.037773  p :     2.999405
      px      :     0.951090
      py      :     1.010542
      dz2     :     0.012429  d :     0.089478
      dxz     :     0.019586
      dyz     :     0.015301
      dx2y2   :     0.023281
      dxy     :     0.018880

  3 H s       :     0.876397  s :     0.876397
      pz      :     0.013653  p :     0.023293
      px      :     0.004659
      py      :     0.004981

  4 H s       :     0.859230  s :     0.859230
      pz      :     0.004395  p :     0.023843
      px      :     0.013840
      py      :     0.005608

  5 C s       :     3.067495  s :     3.067495
      pz      :     0.985402  p :     2.549865
      px      :     0.761847
      py      :     0.802615
      dz2     :     0.008873  d :     0.143975
      dxz     :     0.022493
      dyz     :     0.023297
      dx2y2   :     0.046535
      dxy     :     0.042776

  6 H s       :     0.850647  s :     0.850647
      pz      :     0.009062  p :     0.023812
      px      :     0.003967
      py      :     0.010784

  7 H s       :     0.866625  s :     0.866625
      pz      :     0.011673  p :     0.023320
      px      :     0.005071
      py      :     0.006576

  8 C s       :     3.010693  s :     3.010693
      pz      :     0.928797  p :     2.795058
      px      :     0.909804
      py      :     0.956457
      dz2     :     0.008041  d :     0.192294
      dxz     :     0.043507
      dyz     :     0.031028
      dx2y2   :     0.053909
      dxy     :     0.055808

  9 N s       :     3.380011  s :     3.380011
      pz      :     1.481857  p :     3.669993
      px      :     1.084740
      py      :     1.103395
      dz2     :     0.008901  d :     0.097439
      dxz     :     0.014908
      dyz     :     0.013847
      dx2y2   :     0.029062
      dxy     :     0.030720

 10 H s       :     0.873062  s :     0.873062
      pz      :     0.012838  p :     0.022647
      px      :     0.004879
      py      :     0.004930

 11 H s       :     0.846161  s :     0.846161
      pz      :     0.005310  p :     0.023513
      px      :     0.008085
      py      :     0.010118

 12 C s       :     3.158659  s :     3.158659
      pz      :     1.005130  p :     2.845864
      px      :     1.035237
      py      :     0.805497
      dz2     :     0.026837  d :     0.107771
      dxz     :     0.012637
      dyz     :     0.022028
      dx2y2   :     0.023416
      dxy     :     0.022853

 13 C s       :     3.107594  s :     3.107594
      pz      :     1.021713  p :     2.952221
      px      :     0.921760
      py      :     1.008748
      dz2     :     0.020483  d :     0.090962
      dxz     :     0.016466
      dyz     :     0.008421
      dx2y2   :     0.026587
      dxy     :     0.019004

 14 H s       :     0.873209  s :     0.873209
      pz      :     0.015377  p :     0.022679
      px      :     0.004293
      py      :     0.003009

 15 H s       :     0.844850  s :     0.844850
      pz      :     0.005291  p :     0.023594
      px      :     0.011656
      py      :     0.006647

 16 C s       :     3.169044  s :     3.169044
      pz      :     1.030715  p :     3.013811
      px      :     1.034203
      py      :     0.948893
      dz2     :     0.018291  d :     0.090677
      dxz     :     0.008538
      dyz     :     0.019952
      dx2y2   :     0.023118
      dxy     :     0.020778

 17 H s       :     0.859334  s :     0.859334
      pz      :     0.005949  p :     0.023857
      px      :     0.003936
      py      :     0.013972

 18 H s       :     0.875853  s :     0.875853
      pz      :     0.015005  p :     0.023266
      px      :     0.003749
      py      :     0.004512

 19 C s       :     3.287957  s :     3.287957
      pz      :     1.006719  p :     2.483821
      px      :     0.716297
      py      :     0.760804
      dz2     :     0.014541  d :     0.129585
      dxz     :     0.021873
      dyz     :     0.021508
      dx2y2   :     0.025566
      dxy     :     0.046097

 20 H s       :     0.864023  s :     0.864023
      pz      :     0.015154  p :     0.023430
      px      :     0.004451
      py      :     0.003825

 21 H s       :     0.851038  s :     0.851038
      pz      :     0.005643  p :     0.024093
      px      :     0.012873
      py      :     0.005577

 22 C s       :     3.493169  s :     3.493169
      pz      :     0.979283  p :     2.957255
      px      :     1.038539
      py      :     0.939433
      dz2     :     0.006719  d :     0.098225
      dxz     :     0.029192
      dyz     :     0.007032
      dx2y2   :     0.033747
      dxy     :     0.021536

 23 C s       :     3.175101  s :     3.175101
      pz      :     0.923181  p :     2.554233
      px      :     0.722677
      py      :     0.908375
      dz2     :     0.011798  d :     0.189217
      dxz     :     0.039882
      dyz     :     0.030577
      dx2y2   :     0.058900
      dxy     :     0.048061

 24 C s       :     2.984182  s :     2.984182
      pz      :     0.970417  p :     2.409746
      px      :     0.652790
      py      :     0.786539
      dz2     :     0.012547  d :     0.141819
      dxz     :     0.027645
      dyz     :     0.020696
      dx2y2   :     0.049315
      dxy     :     0.031616

 25 O s       :     3.820753  s :     3.820753
      pz      :     1.666814  p :     4.507703
      px      :     1.228820
      py      :     1.612070
      dz2     :     0.005520  d :     0.045496
      dxz     :     0.009299
      dyz     :     0.004300
      dx2y2   :     0.007983
      dxy     :     0.018394

 26 C s       :     2.911782  s :     2.911782
      pz      :     0.810964  p :     2.419261
      px      :     0.684194
      py      :     0.924104
      dz2     :     0.013830  d :     0.255015
      dxz     :     0.048941
      dyz     :     0.035652
      dx2y2   :     0.099548
      dxy     :     0.057044

 27 C s       :     3.332807  s :     3.332807
      pz      :     0.904559  p :     2.916673
      px      :     1.019099
      py      :     0.993015
      dz2     :     0.006867  d :     0.099769
      dxz     :     0.033584
      dyz     :     0.006519
      dx2y2   :     0.030896
      dxy     :     0.021903

 28 C s       :     3.106231  s :     3.106231
      pz      :     1.057461  p :     2.577225
      px      :     0.749078
      py      :     0.770686
      dz2     :     0.011148  d :     0.131606
      dxz     :     0.022393
      dyz     :     0.013480
      dx2y2   :     0.052193
      dxy     :     0.032393

 29 O s       :     3.867638  s :     3.867638
      pz      :     1.487966  p :     4.664516
      px      :     1.514693
      py      :     1.661857
      dz2     :     0.004100  d :     0.032873
      dxz     :     0.008413
      dyz     :     0.003555
      dx2y2   :     0.007572
      dxy     :     0.009232

 30 C s       :     3.125297  s :     3.125297
      pz      :     0.818758  p :     2.518897
      px      :     0.804808
      py      :     0.895332
      dz2     :     0.031568  d :     0.154532
      dxz     :     0.042551
      dyz     :     0.026328
      dx2y2   :     0.022846
      dxy     :     0.031240

 31 C s       :     3.226005  s :     3.226005
      pz      :     0.972166  p :     2.893344
      px      :     0.983440
      py      :     0.937738
      dz2     :     0.011957  d :     0.087610
      dxz     :     0.022699
      dyz     :     0.012813
      dx2y2   :     0.021804
      dxy     :     0.018338

 32 C s       :     3.168205  s :     3.168205
      pz      :     0.961773  p :     2.776438
      px      :     0.913238
      py      :     0.901428
      dz2     :     0.013985  d :     0.101655
      dxz     :     0.029459
      dyz     :     0.017959
      dx2y2   :     0.026572
      dxy     :     0.013679

 33 N s       :     3.580323  s :     3.580323
      pz      :     1.418067  p :     3.846955
      px      :     1.121009
      py      :     1.307879
      dz2     :     0.014571  d :     0.074445
      dxz     :     0.019454
      dyz     :     0.009003
      dx2y2   :     0.014270
      dxy     :     0.017146

 34 C s       :     3.124047  s :     3.124047
      pz      :     0.852713  p :     2.711173
      px      :     0.914206
      py      :     0.944254
      dz2     :     0.031014  d :     0.097971
      dxz     :     0.018485
      dyz     :     0.018241
      dx2y2   :     0.011472
      dxy     :     0.018759

 35 C s       :     3.143437  s :     3.143437
      pz      :     0.949037  p :     2.848351
      px      :     0.955787
      py      :     0.943526
      dz2     :     0.013334  d :     0.079719
      dxz     :     0.020830
      dyz     :     0.014070
      dx2y2   :     0.018552
      dxy     :     0.012933

 36 H s       :     0.843518  s :     0.843518
      pz      :     0.011053  p :     0.025021
      px      :     0.010245
      py      :     0.003723

 37 H s       :     0.855230  s :     0.855230
      pz      :     0.010383  p :     0.026264
      px      :     0.011541
      py      :     0.004341

 38 H s       :     0.850994  s :     0.850994
      pz      :     0.003306  p :     0.024839
      px      :     0.012650
      py      :     0.008883

 39 H s       :     0.850770  s :     0.850770
      pz      :     0.012555  p :     0.026330
      px      :     0.003824
      py      :     0.009950

 40 H s       :     0.884409  s :     0.884409
      pz      :     0.006060  p :     0.026114
      px      :     0.003508
      py      :     0.016546

 41 H s       :     0.838311  s :     0.838311
      pz      :     0.005441  p :     0.026078
      px      :     0.003600
      py      :     0.017036



                     *******************************
                     * LOEWDIN POPULATION ANALYSIS *
                     *******************************

----------------------
LOEWDIN ATOMIC CHARGES
----------------------
   0 C :   -0.190546
   1 C :   -0.218944
   2 C :   -0.187200
   3 H :    0.128972
   4 H :    0.131110
   5 C :   -0.106163
   6 H :    0.135804
   7 H :    0.137025
   8 C :   -0.069584
   9 N :    0.121616
  10 H :    0.124139
  11 H :    0.129964
  12 C :   -0.189033
  13 C :   -0.217502
  14 H :    0.124505
  15 H :    0.130309
  16 C :   -0.187459
  17 H :    0.131265
  18 H :    0.129568
  19 C :   -0.089207
  20 H :    0.137238
  21 H :    0.135271
  22 C :   -0.066848
  23 C :   -0.090032
  24 C :   -0.132808
  25 O :    0.218217
  26 C :   -0.249857
  27 C :   -0.017236
  28 C :   -0.102579
  29 O :   -0.073504
  30 C :   -0.102583
  31 C :   -0.065151
  32 C :   -0.129348
  33 N :    0.001477
  34 C :   -0.166407
  35 C :   -0.130960
  36 H :    0.137187
  37 H :    0.144051
  38 H :    0.131985
  39 H :    0.146858
  40 H :    0.149126
  41 H :    0.157262

-------------------------------
LOEWDIN REDUCED ORBITAL CHARGES
-------------------------------
  0 C s       :     2.781654  s :     2.781654
      pz      :     1.052751  p :     2.965720
      px      :     0.887716
      py      :     1.025253
      dz2     :     0.082412  d :     0.443172
      dxz     :     0.104488
      dyz     :     0.068516
      dx2y2   :     0.069662
      dxy     :     0.118093

  1 C s       :     2.780682  s :     2.780682
      pz      :     1.028140  p :     3.071335
      px      :     1.021122
      py      :     1.022073
      dz2     :     0.091505  d :     0.366927
      dxz     :     0.034955
      dyz     :     0.084808
      dx2y2   :     0.080150
      dxy     :     0.075510

  2 C s       :     2.769458  s :     2.769458
      pz      :     1.036953  p :     3.049194
      px      :     0.997977
      py      :     1.014264
      dz2     :     0.043342  d :     0.368547
      dxz     :     0.069416
      dyz     :     0.085891
      dx2y2   :     0.089482
      dxy     :     0.080416

  3 H s       :     0.812793  s :     0.812793
      pz      :     0.030254  p :     0.058234
      px      :     0.013565
      py      :     0.014415

  4 H s       :     0.810162  s :     0.810162
      pz      :     0.012055  p :     0.058728
      px      :     0.031155
      py      :     0.015518

  5 C s       :     2.719702  s :     2.719702
      pz      :     0.900739  p :     2.906303
      px      :     1.010391
      py      :     0.995174
      dz2     :     0.035566  d :     0.480158
      dxz     :     0.075973
      dyz     :     0.066944
      dx2y2   :     0.156720
      dxy     :     0.144955

  6 H s       :     0.805789  s :     0.805789
      pz      :     0.023039  p :     0.058407
      px      :     0.011558
      py      :     0.023810

  7 H s       :     0.804873  s :     0.804873
      pz      :     0.028208  p :     0.058102
      px      :     0.014139
      py      :     0.015755

  8 C s       :     2.702598  s :     2.702598
      pz      :     0.857172  p :     2.768290
      px      :     0.939879
      py      :     0.971239
      dz2     :     0.045750  d :     0.598696
      dxz     :     0.122826
      dyz     :     0.089006
      dx2y2   :     0.164534
      dxy     :     0.176580

  9 N s       :     2.912672  s :     2.912672
      pz      :     1.378395  p :     3.692106
      px      :     1.147636
      py      :     1.166075
      dz2     :     0.024096  d :     0.273605
      dxz     :     0.042272
      dyz     :     0.036694
      dx2y2   :     0.086789
      dxy     :     0.083755

 10 H s       :     0.817862  s :     0.817862
      pz      :     0.030934  p :     0.058000
      px      :     0.012613
      py      :     0.014453

 11 H s       :     0.811687  s :     0.811687
      pz      :     0.015342  p :     0.058349
      px      :     0.018214
      py      :     0.024793

 12 C s       :     2.781239  s :     2.781239
      pz      :     1.027881  p :     2.966172
      px      :     1.046007
      py      :     0.892284
      dz2     :     0.116038  d :     0.441622
      dxz     :     0.045136
      dyz     :     0.083381
      dx2y2   :     0.096519
      dxy     :     0.100548

 13 C s       :     2.780218  s :     2.780218
      pz      :     1.038084  p :     3.070310
      px      :     1.017538
      py      :     1.014687
      dz2     :     0.086579  d :     0.366974
      dxz     :     0.061295
      dyz     :     0.043007
      dx2y2   :     0.103726
      dxy     :     0.072367

 14 H s       :     0.817471  s :     0.817471
      pz      :     0.036393  p :     0.058024
      px      :     0.012421
      py      :     0.009211

 15 H s       :     0.811227  s :     0.811227
      pz      :     0.015082  p :     0.058464
      px      :     0.027411
      py      :     0.015971

 16 C s       :     2.767875  s :     2.767875
      pz      :     1.034832  p :     3.050370
      px      :     1.024640
      py      :     0.990898
      dz2     :     0.086792  d :     0.369215
      dxz     :     0.040966
      dyz     :     0.061352
      dx2y2   :     0.094887
      dxy     :     0.085218

 17 H s       :     0.810032  s :     0.810032
      pz      :     0.016506  p :     0.058703
      px      :     0.012000
      py      :     0.030197

 18 H s       :     0.812218  s :     0.812218
      pz      :     0.034357  p :     0.058214
      px      :     0.011710
      py      :     0.012147

 19 C s       :     2.712972  s :     2.712972
      pz      :     0.933816  p :     2.914398
      px      :     0.995856
      py      :     0.984726
      dz2     :     0.041858  d :     0.461836
      dxz     :     0.070036
      dyz     :     0.066975
      dx2y2   :     0.133240
      dxy     :     0.149727

 20 H s       :     0.804521  s :     0.804521
      pz      :     0.034393  p :     0.058241
      px      :     0.012447
      py      :     0.011402

 21 H s       :     0.805457  s :     0.805457
      pz      :     0.016021  p :     0.059271
      px      :     0.028987
      py      :     0.014264

 22 C s       :     2.759707  s :     2.759707
      pz      :     0.903555  p :     2.927352
      px      :     1.031087
      py      :     0.992710
      dz2     :     0.023879  d :     0.379788
      dxz     :     0.088833
      dyz     :     0.023371
      dx2y2   :     0.146855
      dxy     :     0.096851

 23 C s       :     2.709097  s :     2.709097
      pz      :     0.886081  p :     2.741606
      px      :     0.846854
      py      :     1.008672
      dz2     :     0.054671  d :     0.639328
      dxz     :     0.122025
      dyz     :     0.087180
      dx2y2   :     0.176058
      dxy     :     0.199395

 24 C s       :     2.698933  s :     2.698933
      pz      :     0.926562  p :     2.933026
      px      :     1.007522
      py      :     0.998941
      dz2     :     0.042841  d :     0.500849
      dxz     :     0.079473
      dyz     :     0.068036
      dx2y2   :     0.161921
      dxy     :     0.148578

 25 O s       :     3.273173  s :     3.273173
      pz      :     1.563643  p :     4.406083
      px      :     1.272231
      py      :     1.570208
      dz2     :     0.011608  d :     0.102527
      dxz     :     0.022794
      dyz     :     0.005640
      dx2y2   :     0.025298
      dxy     :     0.037187

 26 C s       :     2.745038  s :     2.745038
      pz      :     0.794955  p :     2.625152
      px      :     0.855204
      py      :     0.974993
      dz2     :     0.076097  d :     0.879667
      dxz     :     0.154301
      dyz     :     0.103253
      dx2y2   :     0.279313
      dxy     :     0.266703

 27 C s       :     2.765617  s :     2.765617
      pz      :     0.833742  p :     2.865941
      px      :     1.036927
      py      :     0.995273
      dz2     :     0.024847  d :     0.385678
      dxz     :     0.095587
      dyz     :     0.023382
      dx2y2   :     0.142404
      dxy     :     0.099458

 28 C s       :     2.716662  s :     2.716662
      pz      :     0.941098  p :     2.930703
      px      :     1.009115
      py      :     0.980490
      dz2     :     0.036110  d :     0.455214
      dxz     :     0.074216
      dyz     :     0.053110
      dx2y2   :     0.158038
      dxy     :     0.133741

 29 O s       :     3.437606  s :     3.437606
      pz      :     1.424749  p :     4.569870
      px      :     1.541703
      py      :     1.603417
      dz2     :     0.007946  d :     0.066028
      dxz     :     0.013631
      dyz     :     0.005927
      dx2y2   :     0.016803
      dxy     :     0.021722

 30 C s       :     2.718307  s :     2.718307
      pz      :     1.005821  p :     2.893771
      px      :     0.965448
      py      :     0.922501
      dz2     :     0.103889  d :     0.490505
      dxz     :     0.120570
      dyz     :     0.084796
      dx2y2   :     0.088592
      dxy     :     0.092659

 31 C s       :     2.775289  s :     2.775289
      pz      :     0.966769  p :     2.919028
      px      :     1.017182
      py      :     0.935077
      dz2     :     0.064591  d :     0.370835
      dxz     :     0.083594
      dyz     :     0.069755
      dx2y2   :     0.083453
      dxy     :     0.069441

 32 C s       :     2.779997  s :     2.779997
      pz      :     0.987253  p :     2.879320
      px      :     0.952329
      py      :     0.939738
      dz2     :     0.068122  d :     0.470031
      dxz     :     0.141104
      dyz     :     0.072084
      dx2y2   :     0.099096
      dxy     :     0.089625

 33 N s       :     3.079798  s :     3.079798
      pz      :     1.327574  p :     3.706477
      px      :     1.156679
      py      :     1.222224
      dz2     :     0.035636  d :     0.212248
      dxz     :     0.055484
      dyz     :     0.024102
      dx2y2   :     0.047360
      dxy     :     0.049667

 34 C s       :     2.789423  s :     2.789423
      pz      :     0.994299  p :     2.902512
      px      :     0.954398
      py      :     0.953815
      dz2     :     0.138600  d :     0.474472
      dxz     :     0.106725
      dyz     :     0.081931
      dx2y2   :     0.051629
      dxy     :     0.095587

 35 C s       :     2.782674  s :     2.782674
      pz      :     0.999753  p :     2.986348
      px      :     1.003128
      py      :     0.983467
      dz2     :     0.058571  d :     0.361938
      dxz     :     0.104212
      dyz     :     0.061358
      dx2y2   :     0.076954
      dxy     :     0.060844

 36 H s       :     0.802875  s :     0.802875
      pz      :     0.025363  p :     0.059938
      px      :     0.023672
      py      :     0.010903

 37 H s       :     0.794520  s :     0.794520
      pz      :     0.023483  p :     0.061428
      px      :     0.025560
      py      :     0.012385

 38 H s       :     0.808462  s :     0.808462
      pz      :     0.010640  p :     0.059553
      px      :     0.028030
      py      :     0.020883

 39 H s       :     0.791352  s :     0.791352
      pz      :     0.027644  p :     0.061790
      px      :     0.011729
      py      :     0.022416

 40 H s       :     0.790193  s :     0.790193
      pz      :     0.015125  p :     0.060681
      px      :     0.010920
      py      :     0.034635

 41 H s       :     0.782077  s :     0.782077
      pz      :     0.013375  p :     0.060661
      px      :     0.010905
      py      :     0.036381



                      *****************************
                      * MAYER POPULATION ANALYSIS *
                      *****************************

  NA   - Mulliken gross atomic population
  ZA   - Total nuclear charge
  QA   - Mulliken gross atomic charge
  VA   - Mayer's total valence
  BVA  - Mayer's bonded valence
  FA   - Mayer's free valence

  ATOM       NA         ZA         QA         VA         BVA        FA
  0 C      6.1117     6.0000    -0.1117     3.9116     3.9116    -0.0000
  1 C      6.1635     6.0000    -0.1635     3.9540     3.9540    -0.0000
  2 C      6.2296     6.0000    -0.2296     3.9164     3.9164    -0.0000
  3 H      0.8997     1.0000     0.1003     0.9677     0.9677    -0.0000
  4 H      0.8831     1.0000     0.1169     0.9585     0.9585     0.0000
  5 C      5.7613     6.0000     0.2387     3.6732     3.6732    -0.0000
  6 H      0.8745     1.0000     0.1255     0.9526     0.9526    -0.0000
  7 H      0.8899     1.0000     0.1101     0.9544     0.9544    -0.0000
  8 C      5.9980     6.0000     0.0020     4.0840     4.0840    -0.0000
  9 N      7.1474     7.0000    -0.1474     3.3198     3.3198     0.0000
 10 H      0.8957     1.0000     0.1043     0.9535     0.9535    -0.0000
 11 H      0.8697     1.0000     0.1303     0.9492     0.9492    -0.0000
 12 C      6.1123     6.0000    -0.1123     3.9078     3.9078    -0.0000
 13 C      6.1508     6.0000    -0.1508     3.9518     3.9518     0.0000
 14 H      0.8959     1.0000     0.1041     0.9551     0.9551     0.0000
 15 H      0.8684     1.0000     0.1316     0.9489     0.9489    -0.0000
 16 C      6.2735     6.0000    -0.2735     3.9546     3.9546     0.0000
 17 H      0.8832     1.0000     0.1168     0.9590     0.9590     0.0000
 18 H      0.8991     1.0000     0.1009     0.9667     0.9667    -0.0000
 19 C      5.9014     6.0000     0.0986     3.6503     3.6503    -0.0000
 20 H      0.8875     1.0000     0.1125     0.9548     0.9548     0.0000
 21 H      0.8751     1.0000     0.1249     0.9571     0.9571     0.0000
 22 C      6.5486     6.0000    -0.5486     3.8364     3.8364    -0.0000
 23 C      5.9186     6.0000     0.0814     3.9062     3.9062    -0.0000
 24 C      5.5357     6.0000     0.4643     3.5064     3.5064    -0.0000
 25 O      8.3740     8.0000    -0.3740     2.1159     2.1159    -0.0000
 26 C      5.5861     6.0000     0.4139     4.2639     4.2639     0.0000
 27 C      6.3492     6.0000    -0.3492     3.8212     3.8212    -0.0000
 28 C      5.8151     6.0000     0.1849     3.4359     3.4359     0.0000
 29 O      8.5650     8.0000    -0.5650     2.0164     2.0164     0.0000
 30 C      5.7987     6.0000     0.2013     3.7778     3.7778     0.0000
 31 C      6.2070     6.0000    -0.2070     4.0499     4.0499     0.0000
 32 C      6.0463     6.0000    -0.0463     4.0746     4.0746     0.0000
 33 N      7.5017     7.0000    -0.5017     3.0340     3.0340    -0.0000
 34 C      5.9332     6.0000     0.0668     4.0171     4.0171     0.0000
 35 C      6.0715     6.0000    -0.0715     3.9282     3.9282     0.0000
 36 H      0.8685     1.0000     0.1315     0.9813     0.9813    -0.0000
 37 H      0.8815     1.0000     0.1185     0.9671     0.9671    -0.0000
 38 H      0.8758     1.0000     0.1242     0.9742     0.9742    -0.0000
 39 H      0.8771     1.0000     0.1229     0.9813     0.9813     0.0000
 40 H      0.9105     1.0000     0.0895     0.9894     0.9894    -0.0000
 41 H      0.8644     1.0000     0.1356     0.9759     0.9759     0.0000

  Mayer bond orders larger than 0.100000
B(  0-C ,  1-C ) :   1.0035 B(  0-C ,  9-N ) :   0.9517 B(  0-C , 10-H ) :   0.9476 
B(  0-C , 11-H ) :   0.9517 B(  1-C ,  2-C ) :   1.0237 B(  1-C ,  3-H ) :   0.9680 
B(  1-C ,  4-H ) :   0.9609 B(  2-C ,  5-C ) :   0.9961 B(  2-C ,  6-H ) :   0.9556 
B(  2-C ,  7-H ) :   0.9458 B(  5-C ,  8-C ) :   1.2435 B(  5-C , 22-C ) :   1.3850 
B(  8-C ,  9-N ) :   1.3510 B(  8-C , 19-C ) :   1.2539 B(  9-N , 12-C ) :   0.9512 
B( 12-C , 13-C ) :   0.9987 B( 12-C , 14-H ) :   0.9481 B( 12-C , 15-H ) :   0.9527 
B( 13-C , 16-C ) :   1.0374 B( 13-C , 17-H ) :   0.9629 B( 13-C , 18-H ) :   0.9664 
B( 16-C , 19-C ) :   1.0378 B( 16-C , 20-H ) :   0.9532 B( 16-C , 21-H ) :   0.9478 
B( 19-C , 23-C ) :   1.3256 B( 22-C , 24-C ) :   1.1044 B( 22-C , 40-H ) :   1.0541 
B( 23-C , 24-C ) :   1.3565 B( 23-C , 25-O ) :   1.0240 B( 24-C , 27-C ) :   1.1132 
B( 25-O , 26-C ) :   1.0970 B( 26-C , 28-C ) :   1.1142 B( 26-C , 29-O ) :   1.9395 
B( 27-C , 28-C ) :   1.4343 B( 27-C , 41-H ) :   0.9804 B( 28-C , 30-C ) :   0.9416 
B( 30-C , 31-C ) :   1.4014 B( 30-C , 32-C ) :   1.3961 B( 31-C , 35-C ) :   1.4635 
B( 31-C , 39-H ) :   0.9713 B( 32-C , 33-N ) :   1.5012 B( 32-C , 36-H ) :   0.9655 
B( 33-N , 34-C ) :   1.4646 B( 34-C , 35-C ) :   1.4240 B( 34-C , 38-H ) :   0.9650 
B( 35-C , 37-H ) :   0.9626 

-------
TIMINGS
-------

Total SCF time: 0 days 0 hours 6 min 46 sec 

Total time                  ....     406.775 sec
Sum of individual times     ....     405.903 sec  ( 99.8%)

SCF preparation             ....       1.483 sec  (  0.4%)
Fock matrix formation       ....     400.944 sec  ( 98.6%)
  Startup                   ....       0.099 sec  (  0.0% of F)
  Split-RI-J                ....      33.329 sec  (  8.3% of F)
  Chain of spheres X        ....     294.881 sec  ( 73.5% of F)
  XC integration            ....      28.901 sec  (  7.2% of F)
    Basis function eval.    ....       7.770 sec  ( 26.9% of XC)
    Density eval.           ....       9.250 sec  ( 32.0% of XC)
    XC-Functional eval.     ....       0.549 sec  (  1.9% of XC)
    XC-Potential eval.      ....       9.458 sec  ( 32.7% of XC)
  CPCM terms                ....      42.317 sec  ( 10.6% of F)
Diagonalization             ....       0.000 sec  (  0.0%)
Density matrix formation    ....       0.645 sec  (  0.2%)
Total Energy calculation    ....       0.068 sec  (  0.0%)
Population analysis         ....       0.053 sec  (  0.0%)
Orbital Transformation      ....       0.294 sec  (  0.1%)
Orbital Orthonormalization  ....       0.000 sec  (  0.0%)
DIIS solution               ....       1.259 sec  (  0.3%)
SOSCF solution              ....       1.157 sec  (  0.3%)
Finished LeanSCF after 406.9 sec

Maximum memory used throughout the entire LEANSCF-calculation: 170.5 MB

------------------------------------------------------------------------------
                         ORCA PROPERTY INTEGRAL CALCULATIONS
------------------------------------------------------------------------------

GBWName                                   ... NMU-1.gbw
Number of atoms                           ...     42
Number of basis functions                 ...    684
Max core memory                           ...   1024 MB

Dipole integrals                          ... YES
Quadrupole integrals                      ...  NO
Linear momentum integrals                 ...  NO
Angular momentum integrals                ...  NO
Higher moments length integrals           ...  NO
Higher moments velocity integrals         ...  NO
Kinetic energy integrals                  ...  NO
GIAO right hand sides                     ...  NO
GIAO dipole derivative integrals          ...  NO
SOC integrals                             ...  NO
EPR diamagnetic integrals (GIAO)          ...  NO
EPR gauge integrals                       ...  NO
Field gradient integrals                  ...  NO (   0 nuclei)
Spin-dipole/Fermi contact integrals       ...  NO (   0 nuclei)
Contact density integrals                 ...  NO (   0 nuclei)
Nucleus-orbit integrals                   ...  NO (   0 nuclei)
Geometric perturbations                   ...  NO (  42 nuclei)

Choice of electric origin   ... Center of mass
Position of electric origin ... ( -2.6785, -5.0710,  0.0612) 
Choice of magnetic origin   ... GIAO
Position of magnetic origin ... (  0.0000,  0.0000,  0.0000) 

Calculating integrals                     ... Electric Dipole (Length)     done (  0.1 sec)

Property integrals calculated in   0.1 sec

Maximum memory used throughout the entire PROPINT-calculation: 84.1 MB


-------------------------------------------------------------------------------
                          DFT DISPERSION CORRECTION                            
                                                                               
                              DFTD3 V3.1  Rev 1                                
                          USING Becke-Johnson damping                          
-------------------------------------------------------------------------------
The B3LYP functional is recognized
Active option DFTDOPT                   ...         4   

molecular C6(AA) [au] = 20166.431975 


            DFT-D V3
 parameters
 s6 scaling factor         :     1.0000 
 a1 scaling factor         :     0.3981 
 s8 scaling factor         :     1.9889 
 a2 scaling factor         :     4.4211 
 ad hoc parameters k1-k3   :    16.0000     1.3333    -4.0000 

 Edisp/kcal,au: -61.431704593472  -0.097897642314 
 E6   /kcal   : -28.819446293 
 E8   /kcal   : -32.612258300 
 % E8         :  53.087015111 

-------------------------   ----------------
Dispersion correction           -0.097897642
-------------------------   ----------------


-------------------------   --------------------
FINAL SINGLE POINT ENERGY     -1032.800158749808
-------------------------   --------------------

------------------------------------------------------------------------------
                         ORCA SCF GRADIENT CALCULATION
------------------------------------------------------------------------------

Nuc. rep. gradient        (SHARK) ... done (  0.0 sec)
HCore & Overlap gradient  (SHARK) ... done (  1.8 sec)
Split-RIJ-J gradient      (SHARK) ... done ( 10.7 sec)
COSX-gradient                     ... done (127.5 sec)
XC gradient                       ... done ( 15.5 sec)
CPCM gradient                     ... done ( 11.5 sec)
Dispersion correction             ... done (  0.0 sec)

-------------------
DISPERSION GRADIENT
-------------------

   1   C   :   -0.000803382    0.000042136   -0.000032942
   2   C   :   -0.000642384   -0.000240700   -0.000323452
   3   C   :   -0.000458749   -0.000608200   -0.000193369
   4   H   :   -0.000271651   -0.000029814   -0.000409022
   5   H   :   -0.000325873   -0.000110732   -0.000137662
   6   C   :   -0.000130164   -0.000712108   -0.000161773
   7   H   :   -0.000141136   -0.000343022   -0.000173441
   8   H   :   -0.000240613   -0.000394010    0.000134873
   9   C   :   -0.000004819   -0.000080257    0.000030825
  10   N   :   -0.000555426    0.000365722    0.000083665
  11   H   :   -0.000433544   -0.000010639    0.000238664
  12   H   :   -0.000398035    0.000152658   -0.000060885
  13   C   :   -0.000337961    0.000697842    0.000225665
  14   C   :    0.000040746    0.000768507    0.000030318
  15   H   :   -0.000223261    0.000267724    0.000361086
  16   H   :   -0.000264634    0.000333286    0.000026635
  17   C   :    0.000278300    0.000715173    0.000215387
  18   H   :    0.000011913    0.000372461    0.000037652
  19   H   :    0.000036447    0.000425629   -0.000246950
  20   C   :    0.000311828    0.000372998    0.000168142
  21   H   :    0.000181411    0.000279883    0.000354065
  22   H   :    0.000221227    0.000360662    0.000004319
  23   C   :   -0.000001123   -0.000746393   -0.000180139
  24   C   :    0.000301729    0.000038039    0.000067804
  25   C   :    0.000011064   -0.000443497   -0.000092707
  26   O   :    0.000404118    0.000329667    0.000135732
  27   C   :    0.000378278    0.000596517    0.000183734
  28   C   :   -0.000142882   -0.000450729   -0.000090155
  29   C   :    0.000053110    0.000101787    0.000045459
  30   O   :    0.000364116    0.000689589    0.000178432
  31   C   :    0.000259321   -0.000196004   -0.000047357
  32   C   :    0.000551452   -0.000077716    0.000475167
  33   C   :    0.000203163   -0.000454476   -0.000553820
  34   N   :    0.000253371   -0.000421464   -0.000415219
  35   C   :    0.000473406   -0.000347981   -0.000084649
  36   C   :    0.000548974   -0.000178067    0.000262195
  37   H   :   -0.000033991   -0.000193709   -0.000391336
  38   H   :    0.000253557   -0.000008050    0.000208767
  39   H   :    0.000245805   -0.000191182   -0.000057437
  40   H   :    0.000190987    0.000090459    0.000370138
  41   H   :   -0.000029709   -0.000402976   -0.000112446
  42   H   :   -0.000134987   -0.000359014   -0.000073961

Difference to translation invariance:
           :   -0.0000000000   -0.0000000000   -0.0000000000

Difference to rotation invariance:
           :   -0.0000000000   -0.0000000000   -0.0000000000

Norm of the Dispersion gradient    ...    0.0036488918
RMS gradient                       ...    0.0003250691
MAX gradient                       ...    0.0008033821

------------------
CARTESIAN GRADIENT
------------------

   1   C   :   -0.000764532   -0.000009118   -0.000018682
   2   C   :   -0.000676232   -0.000177274   -0.000371296
   3   C   :   -0.000410391   -0.000555446   -0.000149127
   4   H   :   -0.000324546   -0.000089805   -0.000204695
   5   H   :   -0.000129495   -0.000028320   -0.000103751
   6   C   :   -0.000101364   -0.000679058   -0.000074449
   7   H   :   -0.000166935   -0.000190502   -0.000018600
   8   H   :   -0.000163820   -0.000316637   -0.000051746
   9   C   :    0.000110558   -0.000117189   -0.000137439
  10   N   :   -0.000563934    0.000380923    0.000135736
  11   H   :   -0.000361170    0.000019996    0.000048382
  12   H   :   -0.000283882    0.000009156    0.000012852
  13   C   :   -0.000307318    0.000665984    0.000157913
  14   C   :    0.000055716    0.000763425    0.000030251
  15   H   :   -0.000192090    0.000306121    0.000171437
  16   H   :   -0.000100615    0.000221490    0.000066054
  17   C   :    0.000337688    0.000658100    0.000166066
  18   H   :    0.000008879    0.000169750   -0.000032788
  19   H   :    0.000031208    0.000372908   -0.000027601
  20   C   :    0.000284156    0.000232347    0.000324431
  21   H   :    0.000158556    0.000246989    0.000162484
  22   H   :    0.000040043    0.000264696    0.000093489
  23   C   :   -0.000022027   -0.000604372   -0.000173961
  24   C   :    0.000283965    0.000026491    0.000017111
  25   C   :   -0.000049266   -0.000448274   -0.000085215
  26   O   :    0.000371142    0.000112405    0.000070354
  27   C   :    0.000534133    0.000572417    0.000101627
  28   C   :   -0.000236913   -0.000322362   -0.000104360
  29   C   :   -0.000006738    0.000138942    0.000111776
  30   O   :    0.000019681    0.000548512    0.000134451
  31   C   :    0.000314316   -0.000302988    0.000013658
  32   C   :    0.000617425   -0.000247296    0.000324054
  33   C   :    0.000269194   -0.000386365   -0.000430559
  34   N   :    0.000353387   -0.000101530   -0.000188922
  35   C   :    0.000311012   -0.000222865   -0.000089620
  36   C   :    0.000470790   -0.000187155    0.000116226
  37   H   :    0.000082499   -0.000146546   -0.000222997
  38   H   :    0.000087015   -0.000012145    0.000091638
  39   H   :    0.000067680   -0.000090132   -0.000042856
  40   H   :    0.000200245   -0.000055498    0.000221422
  41   H   :   -0.000014453   -0.000215456   -0.000038639
  42   H   :   -0.000133568   -0.000204319   -0.000004110

Difference to translation invariance:
           :    0.0000000000    0.0000000000   -0.0000000000

Difference to rotation invariance:
           :    0.0007495733    0.0002126719   -0.0000193768

Norm of the Cartesian gradient     ...    0.0031457994
RMS gradient                       ...    0.0002802501
MAX gradient                       ...    0.0007645324

-------
TIMINGS
-------

Total SCF gradient time     ....      167.112 sec

Densities                   ....       0.004 sec  (  0.0%)
One electron gradient       ....       1.756 sec  (  1.1%)
RI-J Coulomb gradient       ....      10.726 sec  (  6.4%)
COSX gradient               ....     127.548 sec  ( 76.3%)
XC gradient                 ....      15.543 sec  (  9.3%)
CPCM gradient               ....      11.517 sec  (  6.9%)
   A-Matrix (El+Nuc)        ....       0.263 sec  (  0.2%)
   Potential                ....      11.254 sec  (  6.7%)

Maximum memory used throughout the entire SCFGRAD-calculation: 149.8 MB
------------------------------------------------------------------------------
                         ORCA GEOMETRY RELAXATION STEP
------------------------------------------------------------------------------

Reading the OPT-File                    .... done
Getting information on internals        .... done
Copying old internal coords+grads       .... done
Making the new internal coordinates     .... (2022 redundants) done
Validating the new internal coordinates .... (2022 redundants) done
Calculating the B-matrix                .... done
Calculating the G,G- and P matrices     .... done
Transforming gradient to internals      .... done
Projecting the internal gradient        .... done
Number of atoms                         ....  42
Number of internal coordinates          .... 241
Current Energy                          .... -1032.800158750 Eh
Current gradient norm                   ....     0.003145799 Eh/bohr
Maximum allowed component of the step   ....  0.300
Current trust radius                    ....  0.300
Evaluating the initial hessian          ....  (Almloef) done
Projecting the Hessian                  .... done
Forming the augmented Hessian           .... done
Diagonalizing the augmented Hessian     .... done
Last element of RFO vector              ....  0.998327522
Lowest eigenvalues of augmented Hessian:
 -0.000223975  0.014091982  0.014991511  0.016180088  0.018749213
Length of the computed step             ....  0.057908264
The final length of the internal step   ....  0.057908264
Converting the step to Cartesian space:
 Initial RMS(Int)=    0.0037301992
Transforming coordinates:
 Iter   0:  RMS(Cart)=    0.0216630311 RMS(Int)=    0.5723286831
done
Storing new coordinates                 .... done

                                .--------------------.
          ----------------------|Geometry convergence|-------------------------
          Item                value                   Tolerance       Converged
          ---------------------------------------------------------------------
          RMS gradient        0.0005959846            0.0001000000      NO
          MAX gradient        0.0032858337            0.0003000000      NO
          RMS step            0.0037301992            0.0020000000      NO
          MAX step            0.0253129953            0.0040000000      NO
          ........................................................
          Max(Bonds)      0.0038      Max(Angles)    0.15
          Max(Dihed)        1.45      Max(Improp)    0.00
          ---------------------------------------------------------------------

The optimization has not yet converged - more geometry cycles are needed


    ---------------------------------------------------------------------------
                         Redundant Internal Coordinates
                            (Angstroem and degrees)

        Definition                    Value    dE/dq     Step     New-Value
    ----------------------------------------------------------------------------
     1. B(C   1,C   0)                1.5187  0.001016 -0.0013    1.5174   
     2. B(C   2,C   1)                1.5237  0.001104 -0.0015    1.5223   
     3. B(H   3,C   1)                1.0933  0.000075 -0.0001    1.0932   
     4. B(H   4,C   1)                1.0910  0.000137 -0.0002    1.0908   
     5. B(C   5,C   2)                1.5108  0.001774 -0.0023    1.5085   
     6. B(H   6,C   2)                1.0913  0.000134 -0.0002    1.0911   
     7. B(H   7,C   2)                1.0957  0.000153 -0.0002    1.0954   
     8. B(C   8,C   5)                1.4332  0.001758 -0.0018    1.4314   
     9. B(N   9,C   8)                1.3688  0.002188 -0.0021    1.3667   
    10. B(N   9,C   0)                1.4623  0.001848 -0.0023    1.4599   
    11. B(H  10,C   0)                1.0985  0.000164 -0.0002    1.0983   
    12. B(H  11,C   0)                1.0907  0.000172 -0.0003    1.0904   
    13. B(C  12,N   9)                1.4613  0.001757 -0.0023    1.4590   
    14. B(C  13,C  12)                1.5185  0.000974 -0.0013    1.5172   
    15. B(H  14,C  12)                1.0985  0.000171 -0.0003    1.0983   
    16. B(H  15,C  12)                1.0902  0.000170 -0.0002    1.0899   
    17. B(C  16,C  13)                1.5244  0.001127 -0.0014    1.5230   
    18. B(H  17,C  13)                1.0909  0.000138 -0.0002    1.0907   
    19. B(H  18,C  13)                1.0931  0.000082 -0.0001    1.0930   
    20. B(C  19,C  16)                1.5101  0.001947 -0.0024    1.5077   
    21. B(C  19,C   8)                1.4197  0.002026 -0.0020    1.4176   
    22. B(H  20,C  16)                1.0955  0.000187 -0.0003    1.0953   
    23. B(H  21,C  16)                1.0904  0.000099 -0.0001    1.0902   
    24. B(C  22,C   5)                1.3725  0.001669 -0.0013    1.3711   
    25. B(C  23,C  19)                1.3843  0.002462 -0.0020    1.3822   
    26. B(C  24,C  23)                1.4023  0.001267 -0.0011    1.4012   
    27. B(C  24,C  22)                1.4071  0.001662 -0.0014    1.4057   
    28. B(O  25,C  23)                1.3722  0.001067 -0.0009    1.3713   
    29. B(C  26,O  25)                1.3821  0.001074 -0.0010    1.3812   
    30. B(C  27,C  24)                1.4127  0.001968 -0.0018    1.4109   
    31. B(C  28,C  26)                1.4500  0.001575 -0.0017    1.4483   
    32. B(C  28,C  27)                1.3698  0.002118 -0.0017    1.3682   
    33. B(O  29,C  26)                1.2186  0.000334 -0.0002    1.2184   
    34. B(C  30,C  28)                1.4767  0.003286 -0.0038    1.4729   
    35. B(C  31,C  30)                1.3982  0.001596 -0.0014    1.3968   
    36. B(C  32,C  30)                1.4006  0.001338 -0.0012    1.3994   
    37. B(N  33,C  32)                1.3340  0.000629 -0.0005    1.3335   
    38. B(C  34,N  33)                1.3367  0.000068 -0.0000    1.3366   
    39. B(C  35,C  34)                1.3891  0.000132 -0.0001    1.3890   
    40. B(C  35,C  31)                1.3864  0.000783 -0.0006    1.3857   
    41. B(H  36,C  32)                1.0851  0.000112 -0.0002    1.0849   
    42. B(H  37,C  35)                1.0821  0.000127 -0.0002    1.0819   
    43. B(H  38,C  34)                1.0846  0.000112 -0.0002    1.0845   
    44. B(H  39,C  31)                1.0806  0.000124 -0.0002    1.0804   
    45. B(H  40,C  22)                1.0843  0.000218 -0.0003    1.0840   
    46. B(H  41,C  27)                1.0841  0.000205 -0.0003    1.0838   
    47. A(C   1,C   0,H  10)          110.01 -0.000185    0.05    110.06   
    48. A(C   1,C   0,N   9)          111.55  0.000314   -0.13    111.42   
    49. A(N   9,C   0,H  11)          107.27  0.000140   -0.03    107.24   
    50. A(H  10,C   0,H  11)          107.20 -0.000133    0.09    107.29   
    51. A(C   1,C   0,H  11)          110.56 -0.000114    0.04    110.60   
    52. A(N   9,C   0,H  10)          110.12 -0.000033   -0.01    110.11   
    53. A(C   2,C   1,H   3)          110.31 -0.000031   -0.01    110.30   
    54. A(C   0,C   1,H   3)          109.47  0.000060   -0.02    109.45   
    55. A(C   2,C   1,H   4)          110.81  0.000030    0.02    110.83   
    56. A(H   3,C   1,H   4)          107.60 -0.000133    0.07    107.67   
    57. A(C   0,C   1,H   4)          109.24 -0.000008    0.01    109.25   
    58. A(C   0,C   1,C   2)          109.38  0.000080   -0.07    109.30   
    59. A(C   5,C   2,H   7)          109.33  0.000268   -0.03    109.30   
    60. A(C   1,C   2,C   5)          111.25  0.000373   -0.12    111.13   
    61. A(C   5,C   2,H   6)          109.61  0.000036   -0.02    109.59   
    62. A(C   1,C   2,H   7)          108.83 -0.000150    0.02    108.85   
    63. A(C   1,C   2,H   6)          111.13 -0.000207    0.05    111.17   
    64. A(H   6,C   2,H   7)          106.56 -0.000345    0.11    106.68   
    65. A(C   2,C   5,C   8)          120.15 -0.000194   -0.00    120.14   
    66. A(C   2,C   5,C  22)          120.42  0.000383   -0.02    120.40   
    67. A(C   8,C   5,C  22)          119.43 -0.000188    0.02    119.45   
    68. A(C   5,C   8,N   9)          120.13 -0.000095    0.01    120.14   
    69. A(N   9,C   8,C  19)          120.14  0.000088   -0.03    120.11   
    70. A(C   5,C   8,C  19)          119.72  0.000006    0.02    119.74   
    71. A(C   0,N   9,C   8)          121.45 -0.000241   -0.00    121.45   
    72. A(C   8,N   9,C  12)          120.63 -0.000160   -0.03    120.60   
    73. A(C   0,N   9,C  12)          115.79  0.000423   -0.01    115.78   
    74. A(H  14,C  12,H  15)          107.30 -0.000110    0.08    107.39   
    75. A(C  13,C  12,H  15)          110.54 -0.000069    0.04    110.58   
    76. A(N   9,C  12,H  15)          107.40  0.000108   -0.02    107.38   
    77. A(C  13,C  12,H  14)          110.19 -0.000205    0.05    110.24   
    78. A(N   9,C  12,H  14)          110.12  0.000092   -0.02    110.10   
    79. A(N   9,C  12,C  13)          111.17  0.000182   -0.12    111.05   
    80. A(C  12,C  13,H  17)          109.43 -0.000065    0.02    109.44   
    81. A(C  12,C  13,C  16)          110.12  0.000213   -0.09    110.04   
    82. A(H  17,C  13,H  18)          107.52 -0.000287    0.11    107.63   
    83. A(C  16,C  13,H  18)          110.08  0.000178   -0.02    110.06   
    84. A(C  12,C  13,H  18)          109.14 -0.000054   -0.02    109.12   
    85. A(C  16,C  13,H  17)          110.50  0.000002    0.01    110.51   
    86. A(H  20,C  16,H  21)          106.16 -0.000217    0.07    106.23   
    87. A(C  19,C  16,H  21)          109.80  0.000282   -0.03    109.76   
    88. A(C  13,C  16,H  21)          110.38 -0.000290    0.06    110.44   
    89. A(C  19,C  16,H  20)          109.56 -0.000039   -0.02    109.54   
    90. A(C  13,C  16,C  19)          111.20  0.000439   -0.10    111.10   
    91. A(C  13,C  16,H  20)          109.61 -0.000206    0.03    109.64   
    92. A(C  16,C  19,C  23)          120.59  0.000715   -0.07    120.52   
    93. A(C   8,C  19,C  23)          117.98 -0.000166    0.01    117.99   
    94. A(C   8,C  19,C  16)          121.43 -0.000549    0.06    121.49   
    95. A(C   5,C  22,C  24)          122.13  0.000428   -0.06    122.07   
    96. A(C  24,C  22,H  40)          118.52 -0.000218    0.03    118.56   
    97. A(C   5,C  22,H  40)          119.34 -0.000210    0.03    119.37   
    98. A(C  24,C  23,O  25)          119.29 -0.000695    0.10    119.39   
    99. A(C  19,C  23,O  25)          117.21  0.000602   -0.08    117.13   
   100. A(C  19,C  23,C  24)          123.50  0.000093   -0.02    123.48   
   101. A(C  23,C  24,C  27)          118.26 -0.000098    0.01    118.26   
   102. A(C  22,C  24,C  27)          124.52  0.000271   -0.04    124.48   
   103. A(C  22,C  24,C  23)          117.22 -0.000173    0.03    117.25   
   104. A(C  23,O  25,C  26)          123.82  0.001017   -0.13    123.69   
   105. A(C  28,C  26,O  29)          126.91  0.000442   -0.05    126.86   
   106. A(O  25,C  26,O  29)          115.75 -0.000608    0.08    115.82   
   107. A(O  25,C  26,C  28)          117.33  0.000165   -0.02    117.32   
   108. A(C  24,C  27,C  28)          122.59  0.000723   -0.11    122.48   
   109. A(C  28,C  27,H  41)          119.46 -0.000244    0.03    119.49   
   110. A(C  24,C  27,H  41)          117.95 -0.000479    0.07    118.02   
   111. A(C  27,C  28,C  30)          121.94  0.000579   -0.07    121.86   
   112. A(C  26,C  28,C  30)          119.34  0.000531   -0.07    119.27   
   113. A(C  26,C  28,C  27)          118.71 -0.001112    0.15    118.86   
   114. A(C  31,C  30,C  32)          116.74 -0.001155    0.15    116.88   
   115. A(C  28,C  30,C  32)          120.23  0.000395   -0.05    120.18   
   116. A(C  28,C  30,C  31)          123.03  0.000761   -0.10    122.93   
   117. A(C  35,C  31,H  39)          120.34 -0.000509    0.08    120.42   
   118. A(C  30,C  31,H  39)          120.24  0.000039   -0.01    120.23   
   119. A(C  30,C  31,C  35)          119.41  0.000470   -0.07    119.34   
   120. A(N  33,C  32,H  36)          116.07 -0.000415    0.07    116.14   
   121. A(C  30,C  32,H  36)          119.57  0.000102   -0.02    119.55   
   122. A(C  30,C  32,N  33)          124.36  0.000312   -0.05    124.31   
   123. A(C  32,N  33,C  34)          117.70  0.000421   -0.05    117.65   
   124. A(C  35,C  34,H  38)          120.59  0.000132   -0.02    120.57   
   125. A(N  33,C  34,H  38)          116.59  0.000053   -0.01    116.58   
   126. A(N  33,C  34,C  35)          122.81 -0.000185    0.03    122.85   
   127. A(C  34,C  35,H  37)          120.20 -0.000071    0.01    120.21   
   128. A(C  31,C  35,H  37)          120.83 -0.000067    0.01    120.84   
   129. A(C  31,C  35,C  34)          118.97  0.000137   -0.01    118.96   
   130. D(C   2,C   1,C   0,N   9)     56.33 -0.000183    0.32     56.65   
   131. D(C   2,C   1,C   0,H  10)    -66.18 -0.000227    0.39    -65.79   
   132. D(C   2,C   1,C   0,H  11)    175.61  0.000122    0.22    175.83   
   133. D(H   3,C   1,C   0,N   9)    -64.64 -0.000232    0.39    -64.25   
   134. D(H   3,C   1,C   0,H  11)     54.65  0.000073    0.29     54.93   
   135. D(H   3,C   1,C   0,H  10)    172.85 -0.000276    0.46    173.31   
   136. D(C   5,C   2,C   1,C   0)    -51.56  0.000113   -0.29    -51.85   
   137. D(H   6,C   2,C   1,C   0)   -173.99 -0.000050   -0.21   -174.21   
   138. D(H   6,C   2,C   1,H   4)     65.51 -0.000110   -0.19     65.32   
   139. D(H   6,C   2,C   1,H   3)    -53.54  0.000056   -0.29    -53.82   
   140. D(C   5,C   2,C   1,H   3)     68.90  0.000219   -0.37     68.53   
   141. D(C   5,C   2,C   1,H   4)   -172.05  0.000053   -0.27   -172.32   
   142. D(C   8,C   5,C   2,C   1)     26.14 -0.000022    0.08     26.22   
   143. D(C   8,C   5,C   2,H   6)    149.45 -0.000005    0.04    149.49   
   144. D(C  22,C   5,C   2,C   1)   -154.61 -0.000013    0.01   -154.60   
   145. D(C   8,C   5,C   2,H   7)    -94.09 -0.000247    0.15    -93.94   
   146. D(C  22,C   5,C   2,H   6)    -31.30  0.000004   -0.03    -31.33   
   147. D(C  19,C   8,C   5,C  22)     -1.52 -0.000021    0.10     -1.42   
   148. D(C  19,C   8,C   5,C   2)    177.74 -0.000008    0.03    177.77   
   149. D(N   9,C   8,C   5,C  22)    177.61 -0.000090    0.17    177.78   
   150. D(N   9,C   8,C   5,C   2)     -3.13 -0.000076    0.09     -3.04   
   151. D(C  12,N   9,C   8,C  19)    -10.49  0.000084   -0.15    -10.64   
   152. D(C  12,N   9,C   8,C   5)    170.39  0.000153   -0.22    170.17   
   153. D(C   0,N   9,C   8,C  19)   -173.16 -0.000074    0.01   -173.15   
   154. D(C   0,N   9,C   8,C   5)      7.71 -0.000004   -0.06      7.65   
   155. D(C  12,N   9,C   0,H  10)    -76.11  0.000015   -0.01    -76.12   
   156. D(C  12,N   9,C   0,C   1)    161.45  0.000058    0.03    161.47   
   157. D(C   8,N   9,C   0,H  11)   -156.30 -0.000021   -0.08   -156.39   
   158. D(C   8,N   9,C   0,H  10)     87.36  0.000076   -0.17     87.19   
   159. D(C   8,N   9,C   0,C   1)    -35.08  0.000119   -0.14    -35.22   
   160. D(C  13,C  12,N   9,C   0)   -157.51 -0.000166    0.17   -157.34   
   161. D(H  15,C  12,N   9,C   0)    -36.47 -0.000072    0.13    -36.34   
   162. D(H  14,C  12,N   9,C   8)    -83.55 -0.000138    0.36    -83.19   
   163. D(H  14,C  12,N   9,C   0)     80.06 -0.000093    0.21     80.27   
   164. D(C  13,C  12,N   9,C   8)     38.87 -0.000211    0.33     39.20   
   165. D(H  17,C  13,C  12,H  15)     62.16 -0.000146   -0.22     61.94   
   166. D(H  17,C  13,C  12,H  14)    -56.28  0.000161   -0.38    -56.66   
   167. D(H  17,C  13,C  12,N   9)   -178.66  0.000062   -0.30   -178.96   
   168. D(C  16,C  13,C  12,H  15)   -176.19 -0.000050   -0.26   -176.45   
   169. D(C  16,C  13,C  12,H  14)     65.37  0.000257   -0.42     64.95   
   170. D(C  16,C  13,C  12,N   9)    -57.01  0.000158   -0.34    -57.35   
   171. D(H  20,C  16,C  13,H  17)     47.48 -0.000027    0.21     47.69   
   172. D(H  20,C  16,C  13,C  12)    -73.53 -0.000086    0.24    -73.29   
   173. D(C  19,C  16,C  13,H  18)    -72.61 -0.000170    0.26    -72.35   
   174. D(C  19,C  16,C  13,H  17)    168.77  0.000072    0.14    168.91   
   175. D(H  20,C  16,C  13,H  18)    166.09 -0.000269    0.33    166.42   
   176. D(C  19,C  16,C  13,C  12)     47.77  0.000013    0.17     47.94   
   177. D(C  23,C  19,C  16,H  20)    -79.97 -0.000017    0.07    -79.90   
   178. D(C   8,C  19,C  16,H  21)   -143.50 -0.000083    0.01   -143.49   
   179. D(C   8,C  19,C  16,H  20)    100.28  0.000040   -0.04    100.24   
   180. D(C   8,C  19,C  16,C  13)    -21.05  0.000039   -0.00    -21.05   
   181. D(C  23,C  19,C   8,N   9)   -178.51  0.000085   -0.14   -178.65   
   182. D(C  23,C  19,C   8,C   5)      0.62  0.000015   -0.07      0.55   
   183. D(C  23,C  19,C  16,C  13)    158.70 -0.000018    0.11    158.82   
   184. D(C  16,C  19,C   8,N   9)      1.25  0.000031   -0.02      1.23   
   185. D(C  16,C  19,C   8,C   5)   -179.62 -0.000039    0.04   -179.58   
   186. D(H  40,C  22,C   5,C   8)   -179.26  0.000020   -0.07   -179.33   
   187. D(H  40,C  22,C   5,C   2)      1.48  0.000012    0.00      1.49   
   188. D(C  24,C  22,C   5,C   8)      1.23 -0.000000   -0.02      1.21   
   189. D(C  24,C  22,C   5,C   2)   -178.02 -0.000009    0.05   -177.97   
   190. D(O  25,C  23,C  19,C   8)   -179.27  0.000000    0.01   -179.26   
   191. D(C  24,C  23,C  19,C  16)   -179.16  0.000082   -0.15   -179.31   
   192. D(C  24,C  23,C  19,C   8)      0.60  0.000026   -0.04      0.56   
   193. D(O  25,C  23,C  19,C  16)      0.97  0.000057   -0.10      0.87   
   194. D(C  27,C  24,C  23,O  25)     -0.50 -0.000066    0.17     -0.33   
   195. D(C  27,C  24,C  23,C  19)    179.63 -0.000094    0.23    179.86   
   196. D(C  22,C  24,C  23,O  25)    178.97 -0.000023    0.06    179.03   
   197. D(C  22,C  24,C  23,C  19)     -0.90 -0.000051    0.12     -0.79   
   198. D(C  27,C  24,C  22,H  40)     -0.13  0.000060   -0.16     -0.28   
   199. D(C  27,C  24,C  22,C   5)    179.38  0.000081   -0.20    179.18   
   200. D(C  23,C  24,C  22,H  40)   -179.56  0.000016   -0.04   -179.60   
   201. D(C  23,C  24,C  22,C   5)     -0.05  0.000037   -0.08     -0.13   
   202. D(C  26,O  25,C  23,C  24)      0.70  0.000021   -0.03      0.66   
   203. D(C  26,O  25,C  23,C  19)   -179.43  0.000047   -0.08   -179.51   
   204. D(O  29,C  26,O  25,C  23)    178.88 -0.000045    0.10    178.99   
   205. D(C  28,C  26,O  25,C  23)     -0.52  0.000049   -0.15     -0.67   
   206. D(H  41,C  27,C  24,C  23)    179.23  0.000040   -0.13    179.09   
   207. D(H  41,C  27,C  24,C  22)     -0.20 -0.000004   -0.01     -0.21   
   208. D(C  28,C  27,C  24,C  23)      0.18  0.000049   -0.14      0.05   
   209. D(C  28,C  27,C  24,C  22)   -179.24  0.000005   -0.02   -179.26   
   210. D(C  30,C  28,C  27,H  41)      2.29  0.000113   -0.26      2.02   
   211. D(C  30,C  28,C  27,C  24)   -178.69  0.000102   -0.26   -178.95   
   212. D(C  26,C  28,C  27,H  41)   -179.05  0.000038   -0.05   -179.10   
   213. D(C  26,C  28,C  27,C  24)     -0.02  0.000026   -0.04     -0.06   
   214. D(C  30,C  28,C  26,O  29)     -0.46 -0.000037    0.11     -0.35   
   215. D(C  30,C  28,C  26,O  25)    178.87 -0.000150    0.39    179.27   
   216. D(C  27,C  28,C  26,O  29)   -179.16  0.000035   -0.10   -179.26   
   217. D(C  27,C  28,C  26,O  25)      0.17 -0.000078    0.18      0.35   
   218. D(C  32,C  30,C  28,C  27)     40.57  0.000296   -1.23     39.34   
   219. D(C  32,C  30,C  28,C  26)   -138.09  0.000393   -1.45   -139.54   
   220. D(C  31,C  30,C  28,C  27)   -138.64  0.000214   -0.99   -139.62   
   221. D(C  31,C  30,C  28,C  26)     42.70  0.000311   -1.21     41.50   
   222. D(H  39,C  31,C  30,C  32)    179.85  0.000023   -0.03    179.82   
   223. D(H  39,C  31,C  30,C  28)     -0.92  0.000114   -0.27     -1.18   
   224. D(C  35,C  31,C  30,C  32)     -0.76 -0.000001    0.02     -0.75   
   225. D(C  35,C  31,C  30,C  28)    178.47  0.000090   -0.22    178.25   
   226. D(H  36,C  32,C  30,C  31)   -178.22  0.000059   -0.13   -178.35   
   227. D(H  36,C  32,C  30,C  28)      2.53 -0.000033    0.10      2.63   
   228. D(N  33,C  32,C  30,C  31)      0.95 -0.000054    0.09      1.04   
   229. D(N  33,C  32,C  30,C  28)   -178.30 -0.000145    0.32   -177.98   
   230. D(C  34,N  33,C  32,H  36)    178.73 -0.000043    0.09    178.82   
   231. D(C  34,N  33,C  32,C  30)     -0.47  0.000062   -0.13     -0.59   
   232. D(H  38,C  34,N  33,C  32)    180.00 -0.000039    0.07    180.07   
   233. D(C  35,C  34,N  33,C  32)     -0.21 -0.000034    0.06     -0.16   
   234. D(H  37,C  35,C  34,H  38)     -0.23  0.000003   -0.00     -0.23   
   235. D(H  37,C  35,C  34,N  33)    179.99 -0.000003    0.01    180.00   
   236. D(C  31,C  35,C  34,H  38)   -179.87 -0.000012    0.03   -179.84   
   237. D(C  31,C  35,C  34,N  33)      0.35 -0.000018    0.04      0.40   
   238. D(H  37,C  35,C  31,H  39)     -0.08  0.000004   -0.00     -0.09   
   239. D(H  37,C  35,C  31,C  30)   -179.47  0.000025   -0.05   -179.51   
   240. D(C  34,C  35,C  31,H  39)    179.55  0.000019   -0.03    179.52   
   241. D(C  34,C  35,C  31,C  30)      0.17  0.000039   -0.08      0.09   
    ----------------------------------------------------------------------------

Geometry step timings:
Preparation and reading OPT file:      0.000 s ( 1.848 %)
Internal coordinates            :      0.000 s ( 0.123 %)
B/P matrices and projection     :      0.004 s (18.042 %)
Hessian update/contruction      :      0.011 s (52.922 %)
Making the step                 :      0.002 s (11.803 %)
Converting the step to Cartesian:      0.000 s ( 1.365 %)
Storing new data                :      0.001 s ( 4.135 %)
Checking convergence            :      0.000 s ( 0.044 %)
Final printing                  :      0.002 s ( 9.703 %)
Total time                      :      0.020 s

Time for energy+gradient        :    585.500 s
Time for complete geometry iter :    585.651 s

         *************************************************************
         *                GEOMETRY OPTIMIZATION CYCLE   2            *
         *************************************************************
---------------------------------
CARTESIAN COORDINATES (ANGSTROEM)
---------------------------------
  C     -6.549849   -1.504640   -0.080061
  C     -6.550416   -2.653915   -1.070838
  C     -5.552345   -3.709965   -0.617114
  H     -6.282275   -2.279813   -2.062457
  H     -7.555583   -3.072571   -1.135502
  C     -4.200066   -3.099019   -0.345438
  H     -5.452964   -4.503183   -1.359736
  H     -5.927135   -4.181259    0.297969
  C     -4.095629   -1.720803    0.026780
  N     -5.214063   -0.936892    0.077291
  H     -6.932388   -1.844795    0.891598
  H     -7.203722   -0.702211   -0.422898
  C     -5.157494    0.401248    0.656048
  C     -3.866706    1.103823    0.279081
  H     -5.254100    0.344310    1.748558
  H     -6.018522    0.954610    0.281363
  C     -2.670856    0.276378    0.731614
  H     -3.843560    2.092322    0.739454
  H     -3.837963    1.242710   -0.804657
  C     -2.825208   -1.167586    0.326301
  H     -2.568176    0.342388    1.820045
  H     -1.748486    0.680072    0.313443
  C     -3.063631   -3.860830   -0.436025
  C     -1.720184   -1.992767    0.233910
  C     -1.790310   -3.338600   -0.149886
  O     -0.502132   -1.443692    0.542594
  C      0.688844   -2.140886    0.486783
  C     -0.591084   -4.079419   -0.210313
  C      0.626273   -3.532770    0.091440
  O      1.689042   -1.506671    0.773110
  C      1.872559   -4.312621    0.001808
  C      2.898305   -4.215811    0.944962
  C      2.063186   -5.215773   -1.049942
  N      3.139749   -5.990082   -1.189885
  C      4.102981   -5.885593   -0.269081
  C      4.024352   -5.011675    0.807694
  H      1.305898   -5.306105   -1.821594
  H      4.829785   -4.962037    1.528380
  H      4.970953   -6.522321   -0.400392
  H      2.808894   -3.533384    1.777746
  H     -3.143074   -4.901572   -0.728600
  H     -0.651577   -5.123952   -0.493093

----------------------------
CARTESIAN COORDINATES (A.U.)
----------------------------
  NO LB      ZA    FRAG     MASS         X           Y           Z
   0 C     6.0000    0    12.011  -12.377421   -2.843358   -0.151293
   1 C     6.0000    0    12.011  -12.378492   -5.015173   -2.023590
   2 C     6.0000    0    12.011  -10.492412   -7.010819   -1.166177
   3 H     1.0000    0     1.008  -11.871780   -4.308223   -3.897479
   4 H     1.0000    0     1.008  -14.277982   -5.806317   -2.145788
   5 C     6.0000    0    12.011   -7.936975   -5.856297   -0.652783
   6 H     1.0000    0     1.008  -10.304609   -8.509783   -2.569528
   7 H     1.0000    0     1.008  -11.200662   -7.901435    0.563079
   8 C     6.0000    0    12.011   -7.739616   -3.251847    0.050606
   9 N     7.0000    0    14.007   -9.853151   -1.770468    0.146060
  10 H     1.0000    0     1.008  -13.100315   -3.486157    1.684876
  11 H     1.0000    0     1.008  -13.613062   -1.326987   -0.799161
  12 C     6.0000    0    12.011   -9.746251    0.758248    1.239751
  13 C     6.0000    0    12.011   -7.307015    2.085924    0.527387
  14 H     1.0000    0     1.008   -9.928811    0.650652    3.304296
  15 H     1.0000    0     1.008  -11.373358    1.803952    0.531699
  16 C     6.0000    0    12.011   -5.047186    0.522279    1.382550
  17 H     1.0000    0     1.008   -7.263276    3.953916    1.397365
  18 H     1.0000    0     1.008   -7.252699    2.348382   -1.520581
  19 C     6.0000    0    12.011   -5.338870   -2.206418    0.616620
  20 H     1.0000    0     1.008   -4.853150    0.647020    3.439386
  21 H     1.0000    0     1.008   -3.304159    1.285151    0.592321
  22 C     6.0000    0    12.011   -5.789424   -7.295911   -0.823967
  23 C     6.0000    0    12.011   -3.250677   -3.765784    0.442026
  24 C     6.0000    0    12.011   -3.383196   -6.309039   -0.283243
  25 O     8.0000    0    15.999   -0.948893   -2.728183    1.025355
  26 C     6.0000    0    12.011    1.301726   -4.045688    0.919886
  27 C     6.0000    0    12.011   -1.116987   -7.708985   -0.397433
  28 C     6.0000    0    12.011    1.183484   -6.675968    0.172796
  29 O     8.0000    0    15.999    3.191828   -2.847195    1.460966
  30 C     6.0000    0    12.011    3.538623   -8.149673    0.003417
  31 C     6.0000    0    12.011    5.477002   -7.966729    1.785719
  32 C     6.0000    0    12.011    3.898857   -9.856383   -1.984103
  33 N     7.0000    0    14.007    5.933265  -11.319614   -2.248557
  34 C     6.0000    0    12.011    7.753511  -11.122159   -0.508489
  35 C     6.0000    0    12.011    7.604923   -9.470694    1.526320
  36 H     1.0000    0     1.008    2.467790  -10.027085   -3.442314
  37 H     1.0000    0     1.008    9.126971   -9.376890    2.888219
  38 H     1.0000    0     1.008    9.393739  -12.325400   -0.756632
  39 H     1.0000    0     1.008    5.308041   -6.677128    3.359452
  40 H     1.0000    0     1.008   -5.939548   -9.262628   -1.376855
  41 H     1.0000    0     1.008   -1.231302   -9.682865   -0.931811

--------------------------------
INTERNAL COORDINATES (ANGSTROEM)
--------------------------------
 C      0   0   0     0.000000000000     0.00000000     0.00000000
 C      1   0   0     1.517390004738     0.00000000     0.00000000
 C      2   1   0     1.522252330626   109.30389794     0.00000000
 H      2   1   3     1.093233796416   109.45002541   239.09953519
 H      2   1   3     1.090785865853   109.25370994   121.42922742
 C      3   2   1     1.508549610387   111.12812332   308.15177126
 H      3   2   1     1.091126760178   111.17316116   185.79347059
 H      3   2   1     1.095427901714   108.85277157    68.57286512
 C      6   3   2     1.431408880519   120.14387003    26.22118780
 N      9   6   3     1.366735066589   120.14266010   356.96173337
 H      1   2   3     1.098253688618   110.05780265   294.21155429
 H      1   2   3     1.090403482601   110.60073557   175.83434358
 C     10   9   6     1.459032496701   120.59542115   170.16847630
 C     13  10   9     1.517185061919   111.04713139    39.19715608
 H     13  10   9     1.098250334374   110.09876932   276.81265905
 H     13  10   9     1.089939406031   107.37603914   160.20378644
 C     14  13  10     1.522992982301   110.03598163   302.64854322
 H     14  13  10     1.090692225297   109.44301667   181.03636606
 H     14  13  10     1.092979034415   109.12203977    63.50374649
 C      9   6   3     1.417649319816   119.73955857   177.76662283
 H     17  14  13     1.095254497608   109.64250975   286.71062806
 H     17  14  13     1.090230469368   110.43577829   169.98370738
 C      6   3   2     1.371147967427   120.40121616   205.39857380
 C     20   9   6     1.382222003552   117.99124024     0.55030003
 C     24  20   9     1.401243277831   123.48282338     0.56122826
 O     24  20   9     1.371283815440   117.13133758   180.74158123
 C     26  24  20     1.381165412170   123.69172629   180.49163100
 C     25  24  20     1.410889420311   118.26186463   179.85561308
 C     28  25  24     1.368150465657   122.48346749     0.04712298
 O     27  26  24     1.218445501385   115.82354078   178.98933818
 C     29  28  25     1.472898358995   121.86460138   181.05358846
 C     31  29  28     1.396805632845   122.92780493   220.37624986
 C     31  29  28     1.399357253809   120.18039021    39.33781160
 N     33  31  29     1.333463506965   124.30710120   182.01920455
 C     34  33  31     1.336643020436   117.65265998   359.40870291
 C     32  31  29     1.385721645086   119.34363823   178.24627305
 H     33  31  29     1.084938979603   119.55217582     2.62975233
 H     36  32  31     1.081931112868   120.83736972   180.48685772
 H     35  34  33     1.084452977295   116.58130108   180.06916435
 H     32  31  29     1.080384337271   120.23054949   358.81764843
 H     23   6   3     1.083999592063   119.37474460     1.48542196
 H     28  25  24     1.083823282983   118.01944260   179.09294786

---------------------------
INTERNAL COORDINATES (A.U.)
---------------------------
 C      0   0   0     0.000000000000     0.00000000     0.00000000
 C      1   0   0     2.867451547305     0.00000000     0.00000000
 C      2   1   0     2.876640011607   109.30389794     0.00000000
 H      2   1   3     2.065912475574   109.45002541   239.09953519
 H      2   1   3     2.061286557214   109.25370994   121.42922742
 C      3   2   1     2.850745623065   111.12812332   308.15177126
 H      3   2   1     2.061930754129   111.17316116   185.79347059
 H      3   2   1     2.070058733695   108.85277157    68.57286512
 C      6   3   2     2.704970769843   120.14387003    26.22118780
 N      9   6   3     2.582754973480   120.14266010   356.96173337
 H      1   2   3     2.075398697057   110.05780265   294.21155429
 H      1   2   3     2.060563957590   110.60073557   175.83434358
 C     10   9   6     2.757171839256   120.59542115   170.16847630
 C     13  10   9     2.867064261503   111.04713139    39.19715608
 H     13  10   9     2.075392358453   110.09876932   276.81265905
 H     13  10   9     2.059686979967   107.37603914   160.20378644
 C     14  13  10     2.878039640432   110.03598163   302.64854322
 H     14  13  10     2.061109602208   109.44301667   181.03636606
 H     14  13  10     2.065431045163   109.12203977    63.50374649
 C      9   6   3     2.678968968392   119.73955857   177.76662283
 H     17  14  13     2.069731047425   109.64250975   286.71062806
 H     17  14  13     2.060237009961   110.43577829   169.98370738
 C      6   3   2     2.591094147520   120.40121616   205.39857380
 C     20   9   6     2.612021042993   117.99124024     0.55030003
 C     24  20   9     2.647966042099   123.48282338     0.56122826
 O     24  20   9     2.591350863061   117.13133758   180.74158123
 C     26  24  20     2.610024374645   123.69172629   180.49163100
 C     25  24  20     2.666194609634   118.26186463   179.85561308
 C     28  25  24     2.585429690088   122.48346749     0.04712298
 O     27  26  24     2.302528306726   115.82354078   178.98933818
 C     29  28  25     2.783374521603   121.86460138   181.05358846
 C     31  29  28     2.639580108396   122.92780493   220.37624986
 C     31  29  28     2.644401973214   120.18039021    39.33781160
 N     33  31  29     2.519880837742   124.30710120   182.01920455
 C     34  33  31     2.525889247442   117.65265998   359.40870291
 C     32  31  29     2.618634407059   119.34363823   178.24627305
 H     33  31  29     2.050237543465   119.55217582     2.62975233
 H     36  32  31     2.044553499089   120.83736972   180.48685772
 H     35  34  33     2.049319132202   116.58130108   180.06916435
 H     32  31  29     2.041630516821   120.23054949   358.81764843
 H     23   6   3     2.048462358282   119.37474460     1.48542196
 H     28  25  24     2.048129182405   118.01944260   179.09294786

------------------------------------------------------------------------------
                   ___                                                        
                  /   \      - P O W E R E D   B Y -                         
                 /     \                                                     
                 |  |  |   _    _      __       _____    __    __             
                 |  |  |  | |  | |    /  \     |  _  \  |  |  /  |          
                  \  \/   | |  | |   /    \    | | | |  |  | /  /          
                 / \  \   | |__| |  /  /\  \   | |_| |  |  |/  /          
                |  |  |   |  __  | /  /__\  \  |    /   |      \           
                |  |  |   | |  | | |   __   |  |    \   |  |\   \          
                \     /   | |  | | |  |  |  |  | |\  \  |  | \   \       
                 \___/    |_|  |_| |__|  |__|  |_| \__\ |__|  \__/        
                                                                              
                      - O R C A' S   B I G   F R I E N D -                    
                                      &                                       
                       - I N T E G R A L  F E E D E R -                       
                                                                              
 v1 FN, 2020, v2 2021, v3 2022-2024                                           
------------------------------------------------------------------------------


----------------------
SHARK INTEGRAL PACKAGE
----------------------

Number of atoms                             ...     42
Number of basis functions                   ...    684
Number of shells                            ...    312
Maximum angular momentum                    ...      2
Integral batch strategy                     ... SHARK/LIBINT Hybrid
RI-J (if used) integral strategy            ... SPLIT-RIJ (Revised 2003 algorithm where possible)
Printlevel                                  ...      1
Contraction scheme used                     ... SEGMENTED contraction
Prescreening option                         ... SCHWARTZ
   Thresh                                   ... 2.500e-11
   Tcut                                     ... 2.500e-12
   Tpresel                                  ... 2.500e-12 
Coulomb Range Separation                    ... NOT USED
Exchange Range Separation                   ... NOT USED
Multipole approximations                    ... NOT USED
Finite Nucleus Model                        ... NOT USED
CABS basis                                  ... NOT available
Auxiliary Coulomb fitting basis             ... AVAILABLE
   # of basis functions in Aux-J            ...   1374
   # of shells in Aux-J                     ...    450
   Maximum angular momentum in Aux-J        ...      4
Auxiliary J/K fitting basis                 ... NOT available
Auxiliary Correlation fitting basis         ... AVAILABLE
   # of basis functions in Aux-C            ...   2094
   # of shells in Aux-C                     ...    654
   Maximum angular momentum in Aux-C        ...      4
Auxiliary 'external' fitting basis          ... NOT available

Checking pre-screening integrals            ... done (  0.0 sec) Dimension = 312
Check shell pair data                       ... done (  0.0 sec)
Shell pair information
Shell pair cut-off parameter TPreSel        ...   2.5e-12
Total number of shell pairs                 ...     48828
Shell pairs after pre-screening             ...     32451
Total number of primitive shell pairs       ...    159912
Primitive shell pairs kept                  ...     69819
          la=0 lb=0:   9556 shell pairs
          la=1 lb=0:  10774 shell pairs
          la=1 lb=1:   3030 shell pairs
          la=2 lb=0:   5324 shell pairs
          la=2 lb=1:   3012 shell pairs
          la=2 lb=2:    755 shell pairs

Calculating one electron integrals          ... done (  0.1 sec)
Calculating RI/J V-Matrix + Cholesky decomp.... done (  0.4 sec)
Calculating RI/C V-Matrix + Cholesky decomp.... done (  0.8 sec)
Calculating Nuclear repulsion               ... done (  0.0 sec) ENN=   1944.626743850803 Eh

Diagonalization of the overlap matrix:
Smallest eigenvalue                        ... 3.383e-06
Time for diagonalization                   ...    0.038 sec
Threshold for overlap eigenvalues          ... 1.000e-07
Number of eigenvalues below threshold      ... 0
Time for construction of square roots      ...    0.055 sec
Total time needed                          ...    0.102 sec

-------------------
DFT GRID GENERATION
-------------------

General Integration Accuracy     IntAcc      ... 4.388
Radial Grid Type                 RadialGrid  ... OptM3 with GC (2021)
Angular Grid (max. ang.)         AngularGrid ... 4 (Lebedev-302)
Angular grid pruning method      GridPruning ... 4 (adaptive)
Weight generation scheme         WeightScheme... mBecke (2022)
Basis function cutoff            BFCut       ... 1.0000e-11
Integration weight cutoff        WCut        ... 1.0000e-14
Partially contracted basis set               ... off
Rotationally invariant grid construction     ... off
Angular grids for H and He will be reduced by one unit

Total number of grid points                  ...   200237
Total number of batches                      ...     3145
Average number of points per batch           ...       63
Average number of grid points per atom       ...     4768

--------------------
COSX GRID GENERATION
--------------------

GRIDX 1
-------
General Integration Accuracy     IntAcc      ... 3.816
Radial Grid Type                 RadialGrid  ... OptM3 with GC (2021)
Angular Grid (max. ang.)         AngularGrid ... 1 (Lebedev-50)
Angular grid pruning method      GridPruning ... 4 (adaptive)
Weight generation scheme         WeightScheme... mBecke (2022)
Basis function cutoff            BFCut       ... 1.0000e-11
Integration weight cutoff        WCut        ... 1.0000e-14
Partially contracted basis set               ... on
Rotationally invariant grid construction     ... off
Angular grids for H and He will be reduced by one unit

Total number of grid points                  ...    25397
Total number of batches                      ...      225
Average number of points per batch           ...      112
Average number of grid points per atom       ...      605
UseSFitting                                  ... on

GRIDX 2
-------
General Integration Accuracy     IntAcc      ... 4.020
Radial Grid Type                 RadialGrid  ... OptM3 with GC (2021)
Angular Grid (max. ang.)         AngularGrid ... 2 (Lebedev-110)
Angular grid pruning method      GridPruning ... 4 (adaptive)
Weight generation scheme         WeightScheme... mBecke (2022)
Basis function cutoff            BFCut       ... 1.0000e-11
Integration weight cutoff        WCut        ... 1.0000e-14
Partially contracted basis set               ... on
Rotationally invariant grid construction     ... off
Angular grids for H and He will be reduced by one unit

Total number of grid points                  ...    55248
Total number of batches                      ...      453
Average number of points per batch           ...      121
Average number of grid points per atom       ...     1315
UseSFitting                                  ... on

GRIDX 3
-------
General Integration Accuracy     IntAcc      ... 4.338
Radial Grid Type                 RadialGrid  ... OptM3 with GC (2021)
Angular Grid (max. ang.)         AngularGrid ... 3 (Lebedev-194)
Angular grid pruning method      GridPruning ... 4 (adaptive)
Weight generation scheme         WeightScheme... mBecke (2022)
Basis function cutoff            BFCut       ... 1.0000e-11
Integration weight cutoff        WCut        ... 1.0000e-14
Partially contracted basis set               ... on
Rotationally invariant grid construction     ... off
Angular grids for H and He will be reduced by one unit

Total number of grid points                  ...   120859
Total number of batches                      ...      967
Average number of points per batch           ...      124
Average number of grid points per atom       ...     2878
UseSFitting                                  ... on
Initializing property integral containers    ... done (  0.0 sec)

SHARK setup successfully completed in   6.8 seconds

Maximum memory used throughout the entire STARTUP-calculation: 139.8 MB
Occupation numbers will be reassigned to an Aufbau configuration
             **** ENERGY FILE WAS UPDATED (NMU-1.en.tmp) ****
Finished Guess after   0.5 sec
Maximum memory used throughout the entire GUESS-calculation: 88.9 MB
--------------------
CPCM SOLVATION MODEL
--------------------
CPCM parameters:
  Epsilon                                         ...      80.1510
  Refrac                                          ...       1.3328
  Rsolv                                           ...       1.3000
  Surface type                                    ... GAUSSIAN VDW
  Discretization scheme                           ... Constant charge density
    Threshold for H atoms                         ...       5.0000 (charges/Ang^2)
    Threshold for non-H atoms                     ...       5.0000 (charges/Ang^2)
  Epsilon function type                           ...         CPCM
Solvent:                                          ... WATER
Radii:
  Scheme                                          ... Element-dependent radii
  Radius for C  used is    3.8550 Bohr (=   2.0400 Ang.)
  Radius for H  used is    2.4944 Bohr (=   1.3200 Ang.)
  Radius for N  used is    3.5149 Bohr (=   1.8600 Ang.)
  Radius for O  used is    3.4469 Bohr (=   1.8240 Ang.)
Calculating surface                               ...        done! (  0.0s)
Cavity surface points                             ...         3549
Cavity Volume                                     ...    2465.1990
Cavity Surface-area                               ...    1222.3742
Calculating surface distance matrix               ...        done! (  0.0s)
Performing Cholesky decomposition & store         ...        done! (  1.2s)
Overall time for CPCM initialization              ...                 1.2s

----------------------------------------D-I-I-S--------------------------------------------
Iteration    Energy (Eh)           Delta-E    RMSDP     MaxDP     DIISErr   Damp  Time(sec)
-------------------------------------------------------------------------------------------
               ***  Starting incremental Fock matrix formation  ***
    1    -1032.7010228165506760     0.00e+00  5.51e-05  2.72e-03  1.22e-02  0.700  42.2
    2    -1032.7013099332095862    -2.87e-04  4.81e-05  2.35e-03  9.63e-03  0.700  16.4
                               ***Turning on AO-DIIS***
    3    -1032.7015415353337175    -2.32e-04  3.72e-05  1.78e-03  7.24e-03  0.700  16.0
    4    -1032.7017149133114344    -1.73e-04  9.34e-05  4.71e-03  5.25e-03  0.000  15.6
                              *** Initializing SOSCF ***
---------------------------------------S-O-S-C-F--------------------------------------
Iteration    Energy (Eh)           Delta-E    RMSDP     MaxDP     MaxGrad    Time(sec)
--------------------------------------------------------------------------------------
    5    -1032.7021553162110195    -4.40e-04  9.23e-06  5.59e-04  2.61e-04    17.5
               *** Restarting incremental Fock matrix formation ***
    6    -1032.7021564187896274    -1.10e-06  1.11e-05  7.18e-04  1.22e-04    41.9
    7    -1032.7021569525484210    -5.34e-07  9.35e-06  9.00e-04  2.23e-05    23.1
    8    -1032.7021569200799149     3.25e-08  2.74e-06  2.17e-04  2.63e-05    21.2
    9    -1032.7021569993219146    -7.92e-08  3.21e-06  2.20e-04  5.88e-06    19.2
   10    -1032.7021570060303475    -6.71e-09  4.04e-06  3.84e-04  9.74e-06    17.5
                 **** Energy Check signals convergence ****

               *****************************************************
               *                     SUCCESS                       *
               *           SCF CONVERGED AFTER  10 CYCLES          *
               *****************************************************

Recomputing exchange energy using gridx3       ... done (   67.783 sec)
Old exchange energy                            :    -28.005903112 Eh
New exchange energy                            :    -28.005910312 Eh
Exchange energy change after final integration :     -0.000007200 Eh
Total energy after final integration           :  -1032.702164206 Eh
             **** ENERGY FILE WAS UPDATED (NMU-1.en.tmp) ****

----------------
TOTAL SCF ENERGY
----------------

Total Energy       :      -1032.70216420616589 Eh          -28101.25453 eV

Components:
Nuclear Repulsion  :       1944.62674385080322 Eh           52915.98390 eV
Electronic Energy  :      -2977.30127638161184 Eh          -81016.48653 eV
One Electron Energy:      -5265.35843753392237 Eh         -143277.68718 eV
Two Electron Energy:       2288.05716115231053 Eh           62261.20065 eV
CPCM Dielectric    :         -0.02762447522180 Eh              -0.75170 eV

Virial components:
Potential Energy   :      -2061.05655766789368 Eh          -56084.20020 eV
Kinetic Energy     :       1028.35439346172757 Eh           27982.94567 eV
Virial Ratio       :          2.00422789144684

DFT components:
N(Alpha)           :       83.999840996801 electrons
N(Beta)            :       83.999840996801 electrons
N(Total)           :      167.999681993603 electrons
E(X)               :     -111.297632274405 Eh       
E(C)               :       -6.756310902259 Eh       
E(XC)              :     -118.053943176664 Eh       

CPCM Solvation Model Properties:
Surface-charge          :         -0.03919261470989
Corrected charge        :          0.00000000000000
Outlying charge corr.   :          0.00007909796131 Eh               0.00215 eV
Free-energy (cav+disp)  :  This term is not implemented in the current solvation scheme

---------------
SCF CONVERGENCE
---------------

  Last Energy change         ...    6.7084e-09  Tolerance :   1.0000e-08
  Last MAX-Density change    ...    3.8403e-04  Tolerance :   1.0000e-07
  Last RMS-Density change    ...    4.0439e-06  Tolerance :   5.0000e-09
  Last DIIS Error            ...    2.6080e-04  Tolerance :   5.0000e-07
  Last Orbital Gradient      ...    9.7363e-06  Tolerance :   1.0000e-05
  Last Orbital Rotation      ...    1.7099e-05  Tolerance :   1.0000e-05


Total SCF time: 0 days 0 hours 5 min 0 sec 
Finished LeanSCF after 300.4 sec

Maximum memory used throughout the entire LEANSCF-calculation: 170.5 MB

------------------------------------------------------------------------------
                         ORCA PROPERTY INTEGRAL CALCULATIONS
------------------------------------------------------------------------------

GBWName                                   ... NMU-1.gbw
Number of atoms                           ...     42
Number of basis functions                 ...    684
Max core memory                           ...   1024 MB

Dipole integrals                          ... YES
Quadrupole integrals                      ...  NO
Linear momentum integrals                 ...  NO
Angular momentum integrals                ...  NO
Higher moments length integrals           ...  NO
Higher moments velocity integrals         ...  NO
Kinetic energy integrals                  ...  NO
GIAO right hand sides                     ...  NO
GIAO dipole derivative integrals          ...  NO
SOC integrals                             ...  NO
EPR diamagnetic integrals (GIAO)          ...  NO
EPR gauge integrals                       ...  NO
Field gradient integrals                  ...  NO (   0 nuclei)
Spin-dipole/Fermi contact integrals       ...  NO (   0 nuclei)
Contact density integrals                 ...  NO (   0 nuclei)
Nucleus-orbit integrals                   ...  NO (   0 nuclei)
Geometric perturbations                   ...  NO (  42 nuclei)

Choice of electric origin   ... Center of mass
Position of electric origin ... ( -2.6807, -5.0712,  0.0590) 
Choice of magnetic origin   ... GIAO
Position of magnetic origin ... (  0.0000,  0.0000,  0.0000) 

Calculating integrals                     ... Electric Dipole (Length)     done (  0.3 sec)

Property integrals calculated in   0.3 sec

Maximum memory used throughout the entire PROPINT-calculation: 84.2 MB


-------------------------------------------------------------------------------
                          DFT DISPERSION CORRECTION                            
                                                                               
                              DFTD3 V3.1  Rev 1                                
                          USING Becke-Johnson damping                          
-------------------------------------------------------------------------------
-------------------------   ----------------
Dispersion correction           -0.098078125
-------------------------   ----------------


-------------------------   --------------------
FINAL SINGLE POINT ENERGY     -1032.800242331301
-------------------------   --------------------

------------------------------------------------------------------------------
                         ORCA SCF GRADIENT CALCULATION
------------------------------------------------------------------------------

Nuc. rep. gradient        (SHARK) ... done (  0.0 sec)
HCore & Overlap gradient  (SHARK) ... done (  1.7 sec)
Split-RIJ-J gradient      (SHARK) ... done ( 10.6 sec)
COSX-gradient                     ... done (127.3 sec)
XC gradient                       ... done ( 15.9 sec)
CPCM gradient                     ... done ( 11.5 sec)
Dispersion correction             ... done (  0.0 sec)

-------------------
DISPERSION GRADIENT
-------------------

   1   C   :   -0.000805279    0.000040595   -0.000031074
   2   C   :   -0.000643734   -0.000240071   -0.000325011
   3   C   :   -0.000460400   -0.000608057   -0.000196022
   4   H   :   -0.000272107   -0.000027776   -0.000409833
   5   H   :   -0.000326796   -0.000110243   -0.000139164
   6   C   :   -0.000132210   -0.000713154   -0.000166794
   7   H   :   -0.000141381   -0.000343194   -0.000175025
   8   H   :   -0.000241163   -0.000394633    0.000133782
   9   C   :   -0.000006989   -0.000079356    0.000028992
  10   N   :   -0.000556862    0.000365787    0.000086145
  11   H   :   -0.000433377   -0.000013127    0.000239715
  12   H   :   -0.000399575    0.000153136   -0.000058909
  13   C   :   -0.000338054    0.000697744    0.000232135
  14   C   :    0.000040209    0.000770282    0.000033715
  15   H   :   -0.000221754    0.000265477    0.000364534
  16   H   :   -0.000266008    0.000333287    0.000030502
  17   C   :    0.000277457    0.000716677    0.000217424
  18   H   :    0.000011650    0.000373594    0.000038887
  19   H   :    0.000035488    0.000427409   -0.000245777
  20   C   :    0.000312039    0.000375726    0.000167270
  21   H   :    0.000181519    0.000279330    0.000355113
  22   H   :    0.000221345    0.000361553    0.000004802
  23   C   :   -0.000001352   -0.000747756   -0.000184236
  24   C   :    0.000303848    0.000038293    0.000065289
  25   C   :    0.000010409   -0.000442067   -0.000095844
  26   O   :    0.000403234    0.000332314    0.000134475
  27   C   :    0.000381801    0.000593290    0.000180499
  28   C   :   -0.000139589   -0.000450210   -0.000095275
  29   C   :    0.000054916    0.000103674    0.000041673
  30   O   :    0.000366108    0.000685427    0.000178139
  31   C   :    0.000261635   -0.000195929   -0.000048074
  32   C   :    0.000554332   -0.000064991    0.000469097
  33   C   :    0.000198018   -0.000464498   -0.000544797
  34   N   :    0.000252956   -0.000432347   -0.000407982
  35   C   :    0.000473306   -0.000351453   -0.000080208
  36   C   :    0.000553625   -0.000175777    0.000261409
  37   H   :   -0.000037646   -0.000201009   -0.000385078
  38   H   :    0.000255631   -0.000004376    0.000207321
  39   H   :    0.000245282   -0.000193244   -0.000054707
  40   H   :    0.000192444    0.000100883    0.000363510
  41   H   :   -0.000030117   -0.000403239   -0.000114251
  42   H   :   -0.000132859   -0.000357973   -0.000076370

Difference to translation invariance:
           :   -0.0000000000    0.0000000000   -0.0000000000

Difference to rotation invariance:
           :    0.0000000000   -0.0000000000   -0.0000000000

Norm of the Dispersion gradient    ...    0.0036528710
RMS gradient                       ...    0.0003254236
MAX gradient                       ...    0.0008052794

------------------
CARTESIAN GRADIENT
------------------

   1   C   :   -0.000160261   -0.000059661    0.000110332
   2   C   :    0.000143480    0.000091970   -0.000049715
   3   C   :   -0.000061020   -0.000075426    0.000024309
   4   H   :   -0.000207986   -0.000081342   -0.000074925
   5   H   :    0.000009301    0.000028109    0.000023637
   6   C   :   -0.000050299   -0.000236485   -0.000020418
   7   H   :   -0.000049804   -0.000002835   -0.000013787
   8   H   :    0.000007382   -0.000086244   -0.000058200
   9   C   :    0.000008506    0.000129063   -0.000134710
  10   N   :    0.000032493   -0.000016049    0.000132393
  11   H   :   -0.000073886    0.000067272   -0.000054094
  12   H   :    0.000001636   -0.000009294   -0.000001929
  13   C   :   -0.000051139    0.000085336    0.000071691
  14   C   :   -0.000042658   -0.000037869   -0.000105506
  15   H   :   -0.000102701    0.000093189   -0.000047278
  16   H   :    0.000010953    0.000017177   -0.000023741
  17   C   :    0.000012836   -0.000008040    0.000089686
  18   H   :   -0.000015413   -0.000033412    0.000049520
  19   H   :    0.000063517    0.000173489    0.000034652
  20   C   :    0.000164301    0.000041029    0.000099284
  21   H   :    0.000045279    0.000087774   -0.000020269
  22   H   :   -0.000020724    0.000090870    0.000021024
  23   C   :   -0.000042757   -0.000007034   -0.000049046
  24   C   :   -0.000200395    0.000058608   -0.000006247
  25   C   :   -0.000118209   -0.000173938    0.000036478
  26   O   :   -0.000124444   -0.000037946    0.000088574
  27   C   :    0.000800359    0.000259821   -0.000555177
  28   C   :    0.000333465    0.000180007    0.000224066
  29   C   :   -0.000401212   -0.000261212    0.000058348
  30   O   :   -0.000193335   -0.000207953    0.000260135
  31   C   :    0.000244215   -0.000043419    0.000044416
  32   C   :   -0.000229961   -0.000196028   -0.000267625
  33   C   :    0.000066998    0.000291970   -0.000103702
  34   N   :    0.000063407   -0.000014282    0.000017430
  35   C   :   -0.000002163   -0.000097213   -0.000053639
  36   C   :    0.000136216    0.000066012    0.000129100
  37   H   :   -0.000059055   -0.000123006    0.000006098
  38   H   :   -0.000035613    0.000041172    0.000020318
  39   H   :   -0.000015032    0.000005786   -0.000034442
  40   H   :    0.000121025    0.000071384    0.000202121
  41   H   :   -0.000017870   -0.000009132    0.000006953
  42   H   :    0.000010566   -0.000062215   -0.000076115

Difference to translation invariance:
           :    0.0000000000    0.0000000000   -0.0000000000

Difference to rotation invariance:
           :    0.0008550877    0.0003219262   -0.0000464028

Norm of the Cartesian gradient     ...    0.0016195791
RMS gradient                       ...    0.0001442836
MAX gradient                       ...    0.0008003594

-------
TIMINGS
-------

Total SCF gradient time     ....      167.004 sec

Densities                   ....       0.004 sec  (  0.0%)
One electron gradient       ....       1.748 sec  (  1.0%)
RI-J Coulomb gradient       ....      10.570 sec  (  6.3%)
COSX gradient               ....     127.336 sec  ( 76.2%)
XC gradient                 ....      15.855 sec  (  9.5%)
CPCM gradient               ....      11.474 sec  (  6.9%)
   A-Matrix (El+Nuc)        ....       0.256 sec  (  0.2%)
   Potential                ....      11.218 sec  (  6.7%)

Maximum memory used throughout the entire SCFGRAD-calculation: 149.7 MB
------------------------------------------------------------------------------
                         ORCA GEOMETRY RELAXATION STEP
------------------------------------------------------------------------------

Reading the OPT-File                    .... done
Getting information on internals        .... done
Copying old internal coords+grads       .... done
Making the new internal coordinates     .... (2022 redundants) done
Validating the new internal coordinates .... (2022 redundants) done
Calculating the B-matrix                .... done
Calculating the G,G- and P matrices     .... done
Transforming gradient to internals      .... done
Projecting the internal gradient        .... done
Number of atoms                         ....  42
Number of internal coordinates          .... 241
Current Energy                          .... -1032.800242331 Eh
Current gradient norm                   ....     0.001619579 Eh/bohr
Maximum allowed component of the step   ....  0.300
Current trust radius                    ....  0.300
Updating the Hessian (BFGS)             .... done
Forming the augmented Hessian           .... done
Diagonalizing the augmented Hessian     .... done
Last element of RFO vector              ....  0.999338319
Lowest eigenvalues of augmented Hessian:
 -0.000025909  0.013019798  0.014988181  0.016174626  0.018023752
Length of the computed step             ....  0.036396102
The final length of the internal step   ....  0.036396102
Converting the step to Cartesian space:
 Initial RMS(Int)=    0.0023444790
Transforming coordinates:
 Iter   0:  RMS(Cart)=    0.0081985409 RMS(Int)=    0.4047238041
done
Storing new coordinates                 .... done
The predicted energy change is          ....    -0.000012972
Previously predicted energy change      ....    -0.000112363
Actually observed energy change         ....    -0.000083581
Ratio of predicted to observed change   ....     0.743851920
New trust radius                        ....     0.300000000

                                .--------------------.
          ----------------------|Geometry convergence|-------------------------
          Item                value                   Tolerance       Converged
          ---------------------------------------------------------------------
          Energy change      -0.0000835815            0.0000050000      NO
          RMS gradient        0.0000958872            0.0001000000      YES
          MAX gradient        0.0003960072            0.0003000000      NO
          RMS step            0.0023444790            0.0020000000      NO
          MAX step            0.0149633890            0.0040000000      NO
          ........................................................
          Max(Bonds)      0.0007      Max(Angles)    0.06
          Max(Dihed)        0.86      Max(Improp)    0.00
          ---------------------------------------------------------------------

The optimization has not yet converged - more geometry cycles are needed


    ---------------------------------------------------------------------------
                         Redundant Internal Coordinates
                            (Angstroem and degrees)

        Definition                    Value    dE/dq     Step     New-Value
    ----------------------------------------------------------------------------
     1. B(C   1,C   0)                1.5174  0.000096 -0.0003    1.5171   
     2. B(C   2,C   1)                1.5223  0.000133 -0.0004    1.5219   
     3. B(H   3,C   1)                1.0932 -0.000014  0.0000    1.0932   
     4. B(H   4,C   1)                1.0908 -0.000020  0.0000    1.0908   
     5. B(C   5,C   2)                1.5085  0.000213 -0.0005    1.5080   
     6. B(H   6,C   2)                1.0911  0.000005 -0.0000    1.0911   
     7. B(H   7,C   2)                1.0954 -0.000010 -0.0000    1.0954   
     8. B(C   8,C   5)                1.4314  0.000338 -0.0006    1.4308   
     9. B(N   9,C   8)                1.3667  0.000235 -0.0005    1.3663   
    10. B(N   9,C   0)                1.4599  0.000211 -0.0005    1.4594   
    11. B(H  10,C   0)                1.0983 -0.000043  0.0001    1.0983   
    12. B(H  11,C   0)                1.0904 -0.000007 -0.0000    1.0904   
    13. B(C  12,N   9)                1.4590  0.000161 -0.0005    1.4585   
    14. B(C  13,C  12)                1.5172  0.000079 -0.0003    1.5169   
    15. B(H  14,C  12)                1.0983 -0.000048  0.0001    1.0983   
    16. B(H  15,C  12)                1.0899  0.000010 -0.0000    1.0899   
    17. B(C  16,C  13)                1.5230  0.000148 -0.0003    1.5227   
    18. B(H  17,C  13)                1.0907 -0.000012  0.0000    1.0907   
    19. B(H  18,C  13)                1.0930 -0.000004 -0.0000    1.0930   
    20. B(C  19,C  16)                1.5077  0.000285 -0.0006    1.5071   
    21. B(C  19,C   8)                1.4176  0.000293 -0.0005    1.4171   
    22. B(H  20,C  16)                1.0953 -0.000016  0.0000    1.0953   
    23. B(H  21,C  16)                1.0902  0.000011 -0.0000    1.0902   
    24. B(C  22,C   5)                1.3711  0.000165 -0.0003    1.3709   
    25. B(C  23,C  19)                1.3822  0.000264 -0.0004    1.3818   
    26. B(C  24,C  23)                1.4012  0.000223 -0.0003    1.4009   
    27. B(C  24,C  22)                1.4057  0.000233 -0.0003    1.4053   
    28. B(O  25,C  23)                1.3713  0.000227 -0.0003    1.3710   
    29. B(C  26,O  25)                1.3812  0.000372 -0.0005    1.3807   
    30. B(C  27,C  24)                1.4109  0.000396 -0.0006    1.4103   
    31. B(C  28,C  26)                1.4483  0.000032 -0.0002    1.4481   
    32. B(C  28,C  27)                1.3682 -0.000029 -0.0001    1.3680   
    33. B(O  29,C  26)                1.2184 -0.000206  0.0001    1.2186   
    34. B(C  30,C  28)                1.4729  0.000245 -0.0007    1.4722   
    35. B(C  31,C  30)                1.3968 -0.000008 -0.0001    1.3967   
    36. B(C  32,C  30)                1.3994 -0.000001 -0.0001    1.3993   
    37. B(N  33,C  32)                1.3335  0.000084 -0.0001    1.3333   
    38. B(C  34,N  33)                1.3366 -0.000009  0.0000    1.3366   
    39. B(C  35,C  34)                1.3890  0.000085 -0.0001    1.3889   
    40. B(C  35,C  31)                1.3857  0.000024 -0.0001    1.3856   
    41. B(H  36,C  32)                1.0849  0.000045 -0.0001    1.0848   
    42. B(H  37,C  35)                1.0819 -0.000009 -0.0000    1.0819   
    43. B(H  38,C  34)                1.0845 -0.000012  0.0000    1.0845   
    44. B(H  39,C  31)                1.0804  0.000193 -0.0003    1.0800   
    45. B(H  40,C  22)                1.0840  0.000008 -0.0000    1.0840   
    46. B(H  41,C  27)                1.0838  0.000079 -0.0002    1.0837   
    47. A(C   1,C   0,H  10)          110.06  0.000005    0.00    110.06   
    48. A(C   1,C   0,N   9)          111.42  0.000041   -0.06    111.37   
    49. A(N   9,C   0,H  11)          107.24  0.000022    0.00    107.24   
    50. A(H  10,C   0,H  11)          107.29 -0.000037    0.04    107.33   
    51. A(C   1,C   0,H  11)          110.60 -0.000019    0.02    110.62   
    52. A(N   9,C   0,H  10)          110.11 -0.000015   -0.00    110.10   
    53. A(C   2,C   1,H   3)          110.30  0.000003   -0.02    110.28   
    54. A(C   0,C   1,H   3)          109.45  0.000067   -0.04    109.41   
    55. A(C   2,C   1,H   4)          110.83 -0.000019    0.03    110.86   
    56. A(H   3,C   1,H   4)          107.67 -0.000043    0.05    107.72   
    57. A(C   0,C   1,H   4)          109.25 -0.000042    0.04    109.29   
    58. A(C   0,C   1,C   2)          109.30  0.000034   -0.05    109.25   
    59. A(C   5,C   2,H   7)          109.30  0.000051   -0.01    109.29   
    60. A(C   1,C   2,C   5)          111.13  0.000038   -0.05    111.08   
    61. A(C   5,C   2,H   6)          109.59  0.000053   -0.01    109.58   
    62. A(C   1,C   2,H   7)          108.85  0.000020   -0.01    108.85   
    63. A(C   1,C   2,H   6)          111.17 -0.000064    0.03    111.20   
    64. A(H   6,C   2,H   7)          106.68 -0.000102    0.05    106.72   
    65. A(C   2,C   5,C   8)          120.14 -0.000033   -0.01    120.14   
    66. A(C   2,C   5,C  22)          120.40  0.000077    0.00    120.40   
    67. A(C   8,C   5,C  22)          119.45 -0.000044    0.01    119.46   
    68. A(C   5,C   8,N   9)          120.14 -0.000042    0.01    120.15   
    69. A(N   9,C   8,C  19)          120.11  0.000010   -0.01    120.10   
    70. A(C   5,C   8,C  19)          119.74  0.000032    0.00    119.74   
    71. A(C   0,N   9,C   8)          121.45 -0.000000   -0.01    121.43   
    72. A(C   8,N   9,C  12)          120.60  0.000058   -0.05    120.55   
    73. A(C   0,N   9,C  12)          115.78 -0.000049    0.04    115.81   
    74. A(H  14,C  12,H  15)          107.39 -0.000025    0.03    107.42   
    75. A(C  13,C  12,H  15)          110.58 -0.000008    0.03    110.61   
    76. A(N   9,C  12,H  15)          107.38  0.000033    0.01    107.38   
    77. A(C  13,C  12,H  14)          110.24 -0.000013    0.01    110.25   
    78. A(N   9,C  12,H  14)          110.10  0.000035   -0.01    110.09   
    79. A(N   9,C  12,C  13)          111.05 -0.000020   -0.06    110.99   
    80. A(C  12,C  13,H  17)          109.44 -0.000079    0.04    109.48   
    81. A(C  12,C  13,C  16)          110.04  0.000072   -0.05    109.98   
    82. A(H  17,C  13,H  18)          107.63 -0.000104    0.05    107.68   
    83. A(C  16,C  13,H  18)          110.06  0.000053   -0.02    110.04   
    84. A(C  12,C  13,H  18)          109.12  0.000049   -0.04    109.08   
    85. A(C  16,C  13,H  17)          110.51  0.000005    0.02    110.53   
    86. A(H  20,C  16,H  21)          106.23 -0.000047    0.03    106.26   
    87. A(C  19,C  16,H  21)          109.76  0.000108   -0.02    109.75   
    88. A(C  13,C  16,H  21)          110.44 -0.000104    0.04    110.47   
    89. A(C  19,C  16,H  20)          109.54  0.000018   -0.02    109.52   
    90. A(C  13,C  16,C  19)          111.10  0.000043   -0.03    111.08   
    91. A(C  13,C  16,H  20)          109.64 -0.000022    0.01    109.65   
    92. A(C  16,C  19,C  23)          120.52  0.000205   -0.03    120.49   
    93. A(C   8,C  19,C  23)          117.99 -0.000083    0.01    118.00   
    94. A(C   8,C  19,C  16)          121.49 -0.000123    0.02    121.50   
    95. A(C   5,C  22,C  24)          122.07  0.000064   -0.02    122.05   
    96. A(C  24,C  22,H  40)          118.56 -0.000016    0.01    118.56   
    97. A(C   5,C  22,H  40)          119.37 -0.000048    0.01    119.39   
    98. A(C  24,C  23,O  25)          119.39 -0.000177    0.04    119.42   
    99. A(C  19,C  23,O  25)          117.13  0.000103   -0.02    117.11   
   100. A(C  19,C  23,C  24)          123.48  0.000074   -0.01    123.47   
   101. A(C  23,C  24,C  27)          118.26 -0.000083    0.01    118.27   
   102. A(C  22,C  24,C  27)          124.48  0.000127   -0.03    124.46   
   103. A(C  22,C  24,C  23)          117.25 -0.000044    0.01    117.27   
   104. A(C  23,O  25,C  26)          123.69  0.000203   -0.04    123.65   
   105. A(C  28,C  26,O  29)          126.86  0.000039   -0.02    126.84   
   106. A(O  25,C  26,O  29)          115.82  0.000079   -0.01    115.81   
   107. A(O  25,C  26,C  28)          117.32 -0.000116    0.02    117.33   
   108. A(C  24,C  27,C  28)          122.48  0.000171   -0.04    122.45   
   109. A(C  28,C  27,H  41)          119.49 -0.000094    0.02    119.51   
   110. A(C  24,C  27,H  41)          118.02 -0.000077    0.02    118.04   
   111. A(C  27,C  28,C  30)          121.86  0.000312   -0.06    121.81   
   112. A(C  26,C  28,C  30)          119.27 -0.000314    0.05    119.31   
   113. A(C  26,C  28,C  27)          118.86  0.000001    0.02    118.87   
   114. A(C  31,C  30,C  32)          116.88 -0.000050    0.02    116.91   
   115. A(C  28,C  30,C  32)          120.18  0.000053   -0.01    120.17   
   116. A(C  28,C  30,C  31)          122.93 -0.000002   -0.01    122.92   
   117. A(C  35,C  31,H  39)          120.42 -0.000209    0.04    120.47   
   118. A(C  30,C  31,H  39)          120.23  0.000107   -0.02    120.21   
   119. A(C  30,C  31,C  35)          119.34  0.000102   -0.02    119.32   
   120. A(N  33,C  32,H  36)          116.14 -0.000042    0.01    116.15   
   121. A(C  30,C  32,H  36)          119.55  0.000060   -0.01    119.54   
   122. A(C  30,C  32,N  33)          124.31 -0.000018   -0.00    124.31   
   123. A(C  32,N  33,C  34)          117.65  0.000058   -0.01    117.64   
   124. A(C  35,C  34,H  38)          120.57  0.000048   -0.01    120.56   
   125. A(N  33,C  34,H  38)          116.58 -0.000010    0.00    116.58   
   126. A(N  33,C  34,C  35)          122.85 -0.000038    0.01    122.86   
   127. A(C  34,C  35,H  37)          120.21  0.000089   -0.02    120.19   
   128. A(C  31,C  35,H  37)          120.84 -0.000034    0.01    120.85   
   129. A(C  31,C  35,C  34)          118.96 -0.000055    0.01    118.96   
   130. D(C   2,C   1,C   0,N   9)     56.65 -0.000030    0.17     56.82   
   131. D(C   2,C   1,C   0,H  10)    -65.79 -0.000043    0.21    -65.58   
   132. D(C   2,C   1,C   0,H  11)    175.83  0.000012    0.15    175.99   
   133. D(H   3,C   1,C   0,N   9)    -64.25 -0.000096    0.26    -63.99   
   134. D(H   3,C   1,C   0,H  11)     54.93 -0.000054    0.24     55.17   
   135. D(H   3,C   1,C   0,H  10)    173.31 -0.000109    0.30    173.61   
   136. D(C   5,C   2,C   1,C   0)    -51.85  0.000012   -0.16    -52.01   
   137. D(H   6,C   2,C   1,C   0)   -174.21 -0.000037   -0.14   -174.34   
   138. D(H   6,C   2,C   1,H   4)     65.32  0.000005   -0.17     65.15   
   139. D(H   6,C   2,C   1,H   3)    -53.82  0.000069   -0.23    -54.05   
   140. D(C   5,C   2,C   1,H   3)     68.53  0.000118   -0.25     68.28   
   141. D(C   5,C   2,C   1,H   4)   -172.32  0.000055   -0.19   -172.51   
   142. D(C   8,C   5,C   2,C   1)     26.22  0.000007    0.05     26.27   
   143. D(C   8,C   5,C   2,H   6)    149.49 -0.000012    0.04    149.53   
   144. D(C  22,C   5,C   2,C   1)   -154.60 -0.000002    0.03   -154.57   
   145. D(C   8,C   5,C   2,H   7)    -93.94 -0.000076    0.09    -93.84   
   146. D(C  22,C   5,C   2,H   6)    -31.33 -0.000021    0.03    -31.30   
   147. D(C  19,C   8,C   5,C  22)     -1.42 -0.000029    0.10     -1.32   
   148. D(C  19,C   8,C   5,C   2)    177.77 -0.000037    0.08    177.85   
   149. D(N   9,C   8,C   5,C  22)    177.78 -0.000027    0.08    177.86   
   150. D(N   9,C   8,C   5,C   2)     -3.04 -0.000035    0.06     -2.97   
   151. D(C  12,N   9,C   8,C  19)    -10.64  0.000046   -0.16    -10.80   
   152. D(C  12,N   9,C   8,C   5)    170.17  0.000043   -0.14    170.03   
   153. D(C   0,N   9,C   8,C  19)   -173.15  0.000016   -0.07   -173.23   
   154. D(C   0,N   9,C   8,C   5)      7.65  0.000013   -0.05      7.60   
   155. D(C  12,N   9,C   0,H  10)    -76.12 -0.000001   -0.00    -76.12   
   156. D(C  12,N   9,C   0,C   1)    161.47 -0.000025    0.03    161.50   
   157. D(C   8,N   9,C   0,H  11)   -156.39  0.000005   -0.05   -156.44   
   158. D(C   8,N   9,C   0,H  10)     87.19  0.000045   -0.10     87.09   
   159. D(C   8,N   9,C   0,C   1)    -35.22  0.000021   -0.06    -35.28   
   160. D(C  13,C  12,N   9,C   0)   -157.34 -0.000056    0.18   -157.17   
   161. D(H  15,C  12,N   9,C   0)    -36.34 -0.000057    0.18    -36.16   
   162. D(H  14,C  12,N   9,C   8)    -83.19 -0.000085    0.30    -82.89   
   163. D(H  14,C  12,N   9,C   0)     80.27 -0.000050    0.21     80.49   
   164. D(C  13,C  12,N   9,C   8)     39.20 -0.000091    0.26     39.46   
   165. D(H  17,C  13,C  12,H  15)     61.94  0.000024   -0.22     61.72   
   166. D(H  17,C  13,C  12,H  14)    -56.66  0.000069   -0.28    -56.94   
   167. D(H  17,C  13,C  12,N   9)   -178.96  0.000047   -0.23   -179.20   
   168. D(C  16,C  13,C  12,H  15)   -176.45  0.000025   -0.20   -176.65   
   169. D(C  16,C  13,C  12,H  14)     64.95  0.000070   -0.26     64.69   
   170. D(C  16,C  13,C  12,N   9)    -57.35  0.000048   -0.21    -57.56   
   171. D(H  20,C  16,C  13,H  17)     47.69 -0.000040    0.13     47.82   
   172. D(H  20,C  16,C  13,C  12)    -73.29  0.000009    0.10    -73.19   
   173. D(C  19,C  16,C  13,H  18)    -72.35 -0.000096    0.16    -72.20   
   174. D(C  19,C  16,C  13,H  17)    168.91 -0.000004    0.09    169.00   
   175. D(H  20,C  16,C  13,H  18)    166.42 -0.000132    0.20    166.62   
   176. D(C  19,C  16,C  13,C  12)     47.94  0.000045    0.06     48.00   
   177. D(C  23,C  19,C  16,H  20)    -79.90 -0.000019    0.07    -79.82   
   178. D(C   8,C  19,C  16,H  21)   -143.49  0.000005    0.03   -143.46   
   179. D(C   8,C  19,C  16,H  20)    100.24 -0.000010    0.02    100.25   
   180. D(C   8,C  19,C  16,C  13)    -21.05 -0.000023    0.04    -21.01   
   181. D(C  23,C  19,C   8,N   9)   -178.65  0.000017   -0.06   -178.71   
   182. D(C  23,C  19,C   8,C   5)      0.55  0.000020   -0.08      0.47   
   183. D(C  23,C  19,C  16,C  13)    158.82 -0.000032    0.10    158.92   
   184. D(C  16,C  19,C   8,N   9)      1.23  0.000009   -0.00      1.22   
   185. D(C  16,C  19,C   8,C   5)   -179.58  0.000011   -0.02   -179.60   
   186. D(H  40,C  22,C   5,C   8)   -179.33  0.000007   -0.03   -179.36   
   187. D(H  40,C  22,C   5,C   2)      1.49  0.000016   -0.01      1.47   
   188. D(C  24,C  22,C   5,C   8)      1.21  0.000015   -0.04      1.17   
   189. D(C  24,C  22,C   5,C   2)   -177.97  0.000024   -0.02   -178.00   
   190. D(O  25,C  23,C  19,C   8)   -179.26 -0.000007    0.02   -179.23   
   191. D(C  24,C  23,C  19,C  16)   -179.31  0.000015   -0.05   -179.37   
   192. D(C  24,C  23,C  19,C   8)      0.56  0.000006    0.00      0.56   
   193. D(O  25,C  23,C  19,C  16)      0.87  0.000002   -0.03      0.84   
   194. D(C  27,C  24,C  23,O  25)     -0.33 -0.000026    0.09     -0.24   
   195. D(C  27,C  24,C  23,C  19)    179.86 -0.000040    0.12    179.97   
   196. D(C  22,C  24,C  23,O  25)    179.03 -0.000007    0.03    179.06   
   197. D(C  22,C  24,C  23,C  19)     -0.79 -0.000020    0.06     -0.73   
   198. D(C  27,C  24,C  22,H  40)     -0.28  0.000036   -0.11     -0.39   
   199. D(C  27,C  24,C  22,C   5)    179.18  0.000027   -0.10    179.08   
   200. D(C  23,C  24,C  22,H  40)   -179.60  0.000017   -0.05   -179.64   
   201. D(C  23,C  24,C  22,C   5)     -0.13  0.000008   -0.04     -0.17   
   202. D(C  26,O  25,C  23,C  24)      0.66  0.000058   -0.19      0.47   
   203. D(C  26,O  25,C  23,C  19)   -179.51  0.000071   -0.21   -179.72   
   204. D(O  29,C  26,O  25,C  23)    178.99  0.000161   -0.57    178.42   
   205. D(C  28,C  26,O  25,C  23)     -0.67 -0.000065    0.20     -0.47   
   206. D(H  41,C  27,C  24,C  23)    179.09  0.000032   -0.09    179.00   
   207. D(H  41,C  27,C  24,C  22)     -0.21  0.000012   -0.03     -0.24   
   208. D(C  28,C  27,C  24,C  23)      0.05  0.000008   -0.02      0.02   
   209. D(C  28,C  27,C  24,C  22)   -179.26 -0.000012    0.04   -179.22   
   210. D(C  30,C  28,C  27,H  41)      2.02 -0.000013   -0.00      2.02   
   211. D(C  30,C  28,C  27,C  24)   -178.95  0.000012   -0.07   -179.02   
   212. D(C  26,C  28,C  27,H  41)   -179.10 -0.000040    0.11   -178.99   
   213. D(C  26,C  28,C  27,C  24)     -0.06 -0.000016    0.04     -0.03   
   214. D(C  30,C  28,C  26,O  29)     -0.35 -0.000234    0.86      0.51   
   215. D(C  30,C  28,C  26,O  25)    179.27  0.000021   -0.01    179.25   
   216. D(C  27,C  28,C  26,O  29)   -179.26 -0.000214    0.75   -178.51   
   217. D(C  27,C  28,C  26,O  25)      0.35  0.000041   -0.12      0.23   
   218. D(C  32,C  30,C  28,C  27)     39.34  0.000080   -0.47     38.87   
   219. D(C  32,C  30,C  28,C  26)   -139.54  0.000104   -0.58   -140.12   
   220. D(C  31,C  30,C  28,C  27)   -139.62  0.000042   -0.33   -139.95   
   221. D(C  31,C  30,C  28,C  26)     41.50  0.000066   -0.44     41.06   
   222. D(H  39,C  31,C  30,C  32)    179.82 -0.000013    0.04    179.86   
   223. D(H  39,C  31,C  30,C  28)     -1.18  0.000025   -0.10     -1.28   
   224. D(C  35,C  31,C  30,C  32)     -0.75  0.000001    0.00     -0.74   
   225. D(C  35,C  31,C  30,C  28)    178.25  0.000039   -0.14    178.11   
   226. D(H  36,C  32,C  30,C  31)   -178.35 -0.000064    0.14   -178.21   
   227. D(H  36,C  32,C  30,C  28)      2.63 -0.000101    0.27      2.90   
   228. D(N  33,C  32,C  30,C  31)      1.04  0.000017   -0.04      1.00   
   229. D(N  33,C  32,C  30,C  28)   -177.98 -0.000019    0.10   -177.88   
   230. D(C  34,N  33,C  32,H  36)    178.82  0.000058   -0.13    178.69   
   231. D(C  34,N  33,C  32,C  30)     -0.59 -0.000021    0.04     -0.55   
   232. D(H  38,C  34,N  33,C  32)   -179.93  0.000017   -0.03   -179.96   
   233. D(C  35,C  34,N  33,C  32)     -0.15  0.000006   -0.01     -0.16   
   234. D(H  37,C  35,C  34,H  38)     -0.23 -0.000005    0.01     -0.22   
   235. D(H  37,C  35,C  34,N  33)   -180.00  0.000007   -0.02   -180.02   
   236. D(C  31,C  35,C  34,H  38)   -179.84 -0.000001    0.00   -179.84   
   237. D(C  31,C  35,C  34,N  33)      0.40  0.000011   -0.02      0.37   
   238. D(H  37,C  35,C  31,H  39)     -0.09  0.000006   -0.02     -0.10   
   239. D(H  37,C  35,C  31,C  30)   -179.51 -0.000010    0.02   -179.49   
   240. D(C  34,C  35,C  31,H  39)    179.52  0.000002   -0.01    179.51   
   241. D(C  34,C  35,C  31,C  30)      0.09 -0.000014    0.03      0.12   
    ----------------------------------------------------------------------------

Geometry step timings:
Preparation and reading OPT file:      0.000 s ( 2.494 %)
Internal coordinates            :      0.000 s ( 0.128 %)
B/P matrices and projection     :      0.004 s (19.554 %)
Hessian update/contruction      :      0.009 s (46.861 %)
Making the step                 :      0.002 s (12.634 %)
Converting the step to Cartesian:      0.000 s ( 1.445 %)
Storing new data                :      0.001 s ( 4.565 %)
Checking convergence            :      0.000 s ( 0.059 %)
Final printing                  :      0.002 s (12.249 %)
Total time                      :      0.019 s

Time for energy+gradient        :    475.271 s
Time for complete geometry iter :    475.359 s

         *************************************************************
         *                GEOMETRY OPTIMIZATION CYCLE   3            *
         *************************************************************
---------------------------------
CARTESIAN COORDINATES (ANGSTROEM)
---------------------------------
  C     -6.548252   -1.506401   -0.078470
  C     -6.547389   -2.651922   -1.073163
  C     -5.550289   -3.708828   -0.620486
  H     -6.275890   -2.273964   -2.062419
  H     -7.552456   -3.070204   -1.141938
  C     -4.198601   -3.098056   -0.348309
  H     -5.450556   -4.501323   -1.363794
  H     -5.925240   -4.180231    0.294472
  C     -4.094794   -1.720927    0.025889
  N     -5.213312   -0.938111    0.079186
  H     -6.929028   -1.850800    0.892449
  H     -7.203320   -0.703526   -0.417935
  C     -5.156417    0.397352    0.662805
  C     -3.868278    1.102143    0.282107
  H     -5.247440    0.335671    1.755601
  H     -6.019948    0.950832    0.294220
  C     -2.670725    0.275759    0.731004
  H     -3.844857    2.090798    0.742138
  H     -3.843196    1.239794   -0.801875
  C     -2.824868   -1.167200    0.324164
  H     -2.566156    0.339945    1.819368
  H     -1.749416    0.680361    0.311457
  C     -3.062166   -3.859244   -0.440066
  C     -1.719622   -1.991191    0.230323
  C     -1.789397   -3.336600   -0.153908
  O     -0.502273   -1.441074    0.538471
  C      0.688024   -2.138656    0.485120
  C     -0.590762   -4.077307   -0.213619
  C      0.626034   -3.530168    0.089001
  O      1.689456   -1.501098    0.759940
  C      1.871181   -4.310810    0.001428
  C      2.898715   -4.208831    0.941921
  C      2.057609   -5.222278   -1.043746
  N      3.132387   -5.999447   -1.180366
  C      4.097513   -5.889969   -0.262124
  C      4.022639   -5.008182    0.808363
  H      1.299501   -5.314944   -1.814189
  H      4.829599   -4.955244    1.527102
  H      4.963938   -6.529480   -0.390122
  H      2.811551   -3.520335    1.769492
  H     -3.141131   -4.899669   -0.733744
  H     -0.651049   -5.121985   -0.495292

----------------------------
CARTESIAN COORDINATES (A.U.)
----------------------------
  NO LB      ZA    FRAG     MASS         X           Y           Z
   0 C     6.0000    0    12.011  -12.374403   -2.846686   -0.148287
   1 C     6.0000    0    12.011  -12.372771   -5.011407   -2.027983
   2 C     6.0000    0    12.011  -10.488526   -7.008669   -1.172549
   3 H     1.0000    0     1.008  -11.859713   -4.297170   -3.897407
   4 H     1.0000    0     1.008  -14.272074   -5.801845   -2.157950
   5 C     6.0000    0    12.011   -7.934205   -5.854476   -0.658209
   6 H     1.0000    0     1.008  -10.300058   -8.506267   -2.577197
   7 H     1.0000    0     1.008  -11.197081   -7.899492    0.556472
   8 C     6.0000    0    12.011   -7.738040   -3.252081    0.048924
   9 N     7.0000    0    14.007   -9.851732   -1.772772    0.149641
  10 H     1.0000    0     1.008  -13.093965   -3.497505    1.686484
  11 H     1.0000    0     1.008  -13.612302   -1.329471   -0.789783
  12 C     6.0000    0    12.011   -9.744217    0.750886    1.252520
  13 C     6.0000    0    12.011   -7.309985    2.082748    0.533105
  14 H     1.0000    0     1.008   -9.916224    0.634326    3.317605
  15 H     1.0000    0     1.008  -11.376054    1.796812    0.555995
  16 C     6.0000    0    12.011   -5.046939    0.521110    1.381397
  17 H     1.0000    0     1.008   -7.265727    3.951036    1.402438
  18 H     1.0000    0     1.008   -7.262588    2.342871   -1.515325
  19 C     6.0000    0    12.011   -5.338227   -2.205688    0.612580
  20 H     1.0000    0     1.008   -4.849331    0.642404    3.438108
  21 H     1.0000    0     1.008   -3.305917    1.285696    0.588569
  22 C     6.0000    0    12.011   -5.786656   -7.292915   -0.831603
  23 C     6.0000    0    12.011   -3.249615   -3.762806    0.435248
  24 C     6.0000    0    12.011   -3.381469   -6.305260   -0.290844
  25 O     8.0000    0    15.999   -0.949158   -2.723235    1.017563
  26 C     6.0000    0    12.011    1.300176   -4.041473    0.916744
  27 C     6.0000    0    12.011   -1.116378   -7.704994   -0.403682
  28 C     6.0000    0    12.011    1.183033   -6.671050    0.168187
  29 O     8.0000    0    15.999    3.192610   -2.836665    1.436079
  30 C     6.0000    0    12.011    3.536019   -8.146250    0.002698
  31 C     6.0000    0    12.011    5.477778   -7.953538    1.779974
  32 C     6.0000    0    12.011    3.888317   -9.868675   -1.972394
  33 N     7.0000    0    14.007    5.919354  -11.337312   -2.230568
  34 C     6.0000    0    12.011    7.743177  -11.130428   -0.495342
  35 C     6.0000    0    12.011    7.601685   -9.464092    1.527585
  36 H     1.0000    0     1.008    2.455702  -10.043789   -3.428321
  37 H     1.0000    0     1.008    9.126619   -9.364054    2.885805
  38 H     1.0000    0     1.008    9.380483  -12.338929   -0.737224
  39 H     1.0000    0     1.008    5.313061   -6.652469    3.343854
  40 H     1.0000    0     1.008   -5.935877   -9.259033   -1.386574
  41 H     1.0000    0     1.008   -1.230303   -9.679149   -0.935966

--------------------------------
INTERNAL COORDINATES (ANGSTROEM)
--------------------------------
 C      0   0   0     0.000000000000     0.00000000     0.00000000
 C      1   0   0     1.517113179378     0.00000000     0.00000000
 C      2   1   0     1.521897877503   109.25197621     0.00000000
 H      2   1   3     1.093248187643   109.41336544   239.18474887
 H      2   1   3     1.090802672031   109.29026878   121.45974162
 C      3   2   1     1.508040102619   111.07925963   307.99039043
 H      3   2   1     1.091100620637   111.20240217   185.65723428
 H      3   2   1     1.095426094464   108.84674772    68.36540313
 C      6   3   2     1.430833039390   120.13492284    26.26779493
 N      9   6   3     1.366281056152   120.14946027   357.02590397
 H      1   2   3     1.098309802813   110.06165257   294.42350273
 H      1   2   3     1.090394023432   110.62141943   175.98688644
 C     10   9   6     1.458529025844   120.54961259   170.03144624
 C     13  10   9     1.516893521710   110.98510172    39.45844551
 H     13  10   9     1.098313867325   110.08890067   277.10956165
 H     13  10   9     1.089899669923   107.38258517   160.46364940
 C     14  13  10     1.522678177567   109.98192605   302.43786612
 H     14  13  10     1.090695749991   109.48377705   180.80390056
 H     14  13  10     1.092974881277   109.08136380    63.20933449
 C      9   6   3     1.417142733647   119.74406295   177.85042599
 H     17  14  13     1.095258965993   109.64769551   286.81142893
 H     17  14  13     1.090198558035   110.47330987   170.02749252
 C      6   3   2     1.370879377093   120.40235153   205.42927469
 C     20   9   6     1.381787127867   118.00033019     0.47078706
 C     24  20   9     1.400937498061   123.46825217     0.56209745
 O     24  20   9     1.370957486821   117.10986465   180.76540142
 C     26  24  20     1.380678397545   123.64823576   180.27983669
 C     25  24  20     1.410297310335   118.27329500   179.97206506
 C     28  25  24     1.368039604454   122.44785476     0.02407294
 O     27  26  24     1.218553571835   115.81307263   178.41534443
 C     29  28  25     1.472230156071   121.80476303   180.98173502
 C     31  29  28     1.396694201234   122.91841364   220.04930151
 C     31  29  28     1.399256097982   120.16635567    38.86667238
 N     33  31  29     1.333344151323   124.30594250   182.11565861
 C     34  33  31     1.336645604275   117.63894457   359.45162134
 C     32  31  29     1.385641973937   119.32143101   178.10978424
 H     33  31  29     1.084848474926   119.53852129     2.90324770
 H     36  32  31     1.081930594965   120.84511283   180.50563084
 H     35  34  33     1.084458672032   116.58318190   180.03574322
 H     32  31  29     1.080044509229   120.20749519   358.71631799
 H     23   6   3     1.083958369749   119.38660317     1.47042283
 H     28  25  24     1.083663190750   118.03696048   179.00166563

---------------------------
INTERNAL COORDINATES (A.U.)
---------------------------
 C      0   0   0     0.000000000000     0.00000000     0.00000000
 C      1   0   0     2.866928423186     0.00000000     0.00000000
 C      2   1   0     2.875970192276   109.25197621     0.00000000
 H      2   1   3     2.065939671051   109.41336544   239.18474887
 H      2   1   3     2.061318316288   109.29026878   121.45974162
 C      3   2   1     2.849782792920   111.07925963   307.99039043
 H      3   2   1     2.061881357556   111.20240217   185.65723428
 H      3   2   1     2.070055318489   108.84674772    68.36540313
 C      6   3   2     2.703882587813   120.13492284    26.26779493
 N      9   6   3     2.581897018092   120.14946027   357.02590397
 H      1   2   3     2.075504737517   110.06165257   294.42350273
 H      1   2   3     2.060546082352   110.62141943   175.98688644
 C     10   9   6     2.756220417220   120.54961259   170.03144624
 C     13  10   9     2.866513330351   110.98510172    39.45844551
 H     13  10   9     2.075512418332   110.08890067   277.10956165
 H     13  10   9     2.059611889606   107.38258517   160.46364940
 C     14  13  10     2.877444745700   109.98192605   302.43786612
 H     14  13  10     2.061116262915   109.48377705   180.80390056
 H     14  13  10     2.065423196869   109.08136380    63.20933449
 C      9   6   3     2.678011659270   119.74406295   177.85042599
 H     17  14  13     2.069739491448   109.64769551   286.81142893
 H     17  14  13     2.060176706282   110.47330987   170.02749252
 C      6   3   2     2.590586585347   120.40235153   205.42927469
 C     20   9   6     2.611199247046   118.00033019     0.47078706
 C     24  20   9     2.647388202075   123.46825217     0.56209745
 O     24  20   9     2.590734191340   117.10986465   180.76540142
 C     26  24  20     2.609104050381   123.64823576   180.27983669
 C     25  24  20     2.665075683939   118.27329500   179.97206506
 C     28  25  24     2.585220192776   122.44785476     0.02407294
 O     27  26  24     2.302732530280   115.81307263   178.41534443
 C     29  28  25     2.782111801074   121.80476303   180.98173502
 C     31  29  28     2.639369533168   122.91841364   220.04930151
 C     31  29  28     2.644210816406   120.16635567    38.86667238
 N     33  31  29     2.519655288266   124.30594250   182.11565861
 C     34  33  31     2.525894130189   117.63894457   359.45162134
 C     32  31  29     2.618483850407   119.32143101   178.10978424
 H     33  31  29     2.050066514412   119.53852129     2.90324770
 H     36  32  31     2.044552520395   120.84511283   180.50563084
 H     35  34  33     2.049329893696   116.58318190   180.03574322
 H     32  31  29     2.040988334887   120.20749519   358.71631799
 H     23   6   3     2.048384459397   119.38660317     1.47042283
 H     28  25  24     2.047826651929   118.03696048   179.00166563

------------------------------------------------------------------------------
                   ___                                                        
                  /   \      - P O W E R E D   B Y -                         
                 /     \                                                     
                 |  |  |   _    _      __       _____    __    __             
                 |  |  |  | |  | |    /  \     |  _  \  |  |  /  |          
                  \  \/   | |  | |   /    \    | | | |  |  | /  /          
                 / \  \   | |__| |  /  /\  \   | |_| |  |  |/  /          
                |  |  |   |  __  | /  /__\  \  |    /   |      \           
                |  |  |   | |  | | |   __   |  |    \   |  |\   \          
                \     /   | |  | | |  |  |  |  | |\  \  |  | \   \       
                 \___/    |_|  |_| |__|  |__|  |_| \__\ |__|  \__/        
                                                                              
                      - O R C A' S   B I G   F R I E N D -                    
                                      &                                       
                       - I N T E G R A L  F E E D E R -                       
                                                                              
 v1 FN, 2020, v2 2021, v3 2022-2024                                           
------------------------------------------------------------------------------


----------------------
SHARK INTEGRAL PACKAGE
----------------------

Number of atoms                             ...     42
Number of basis functions                   ...    684
Number of shells                            ...    312
Maximum angular momentum                    ...      2
Integral batch strategy                     ... SHARK/LIBINT Hybrid
RI-J (if used) integral strategy            ... SPLIT-RIJ (Revised 2003 algorithm where possible)
Printlevel                                  ...      1
Contraction scheme used                     ... SEGMENTED contraction
Prescreening option                         ... SCHWARTZ
   Thresh                                   ... 2.500e-11
   Tcut                                     ... 2.500e-12
   Tpresel                                  ... 2.500e-12 
Coulomb Range Separation                    ... NOT USED
Exchange Range Separation                   ... NOT USED
Multipole approximations                    ... NOT USED
Finite Nucleus Model                        ... NOT USED
CABS basis                                  ... NOT available
Auxiliary Coulomb fitting basis             ... AVAILABLE
   # of basis functions in Aux-J            ...   1374
   # of shells in Aux-J                     ...    450
   Maximum angular momentum in Aux-J        ...      4
Auxiliary J/K fitting basis                 ... NOT available
Auxiliary Correlation fitting basis         ... AVAILABLE
   # of basis functions in Aux-C            ...   2094
   # of shells in Aux-C                     ...    654
   Maximum angular momentum in Aux-C        ...      4
Auxiliary 'external' fitting basis          ... NOT available

Checking pre-screening integrals            ... done (  0.0 sec) Dimension = 312
Check shell pair data                       ... done (  0.0 sec)
Shell pair information
Shell pair cut-off parameter TPreSel        ...   2.5e-12
Total number of shell pairs                 ...     48828
Shell pairs after pre-screening             ...     32459
Total number of primitive shell pairs       ...    159912
Primitive shell pairs kept                  ...     69856
          la=0 lb=0:   9559 shell pairs
          la=1 lb=0:  10775 shell pairs
          la=1 lb=1:   3030 shell pairs
          la=2 lb=0:   5327 shell pairs
          la=2 lb=1:   3012 shell pairs
          la=2 lb=2:    756 shell pairs

Calculating one electron integrals          ... done (  0.1 sec)
Calculating RI/J V-Matrix + Cholesky decomp.... done (  0.3 sec)
Calculating RI/C V-Matrix + Cholesky decomp.... done (  0.8 sec)
Calculating Nuclear repulsion               ... done (  0.0 sec) ENN=   1945.250207615798 Eh

Diagonalization of the overlap matrix:
Smallest eigenvalue                        ... 3.366e-06
Time for diagonalization                   ...    0.037 sec
Threshold for overlap eigenvalues          ... 1.000e-07
Number of eigenvalues below threshold      ... 0
Time for construction of square roots      ...    0.055 sec
Total time needed                          ...    0.102 sec

-------------------
DFT GRID GENERATION
-------------------

General Integration Accuracy     IntAcc      ... 4.388
Radial Grid Type                 RadialGrid  ... OptM3 with GC (2021)
Angular Grid (max. ang.)         AngularGrid ... 4 (Lebedev-302)
Angular grid pruning method      GridPruning ... 4 (adaptive)
Weight generation scheme         WeightScheme... mBecke (2022)
Basis function cutoff            BFCut       ... 1.0000e-11
Integration weight cutoff        WCut        ... 1.0000e-14
Partially contracted basis set               ... off
Rotationally invariant grid construction     ... off
Angular grids for H and He will be reduced by one unit

Total number of grid points                  ...   200223
Total number of batches                      ...     3146
Average number of points per batch           ...       63
Average number of grid points per atom       ...     4767

--------------------
COSX GRID GENERATION
--------------------

GRIDX 1
-------
General Integration Accuracy     IntAcc      ... 3.816
Radial Grid Type                 RadialGrid  ... OptM3 with GC (2021)
Angular Grid (max. ang.)         AngularGrid ... 1 (Lebedev-50)
Angular grid pruning method      GridPruning ... 4 (adaptive)
Weight generation scheme         WeightScheme... mBecke (2022)
Basis function cutoff            BFCut       ... 1.0000e-11
Integration weight cutoff        WCut        ... 1.0000e-14
Partially contracted basis set               ... on
Rotationally invariant grid construction     ... off
Angular grids for H and He will be reduced by one unit

Total number of grid points                  ...    25402
Total number of batches                      ...      225
Average number of points per batch           ...      112
Average number of grid points per atom       ...      605
UseSFitting                                  ... on

GRIDX 2
-------
General Integration Accuracy     IntAcc      ... 4.020
Radial Grid Type                 RadialGrid  ... OptM3 with GC (2021)
Angular Grid (max. ang.)         AngularGrid ... 2 (Lebedev-110)
Angular grid pruning method      GridPruning ... 4 (adaptive)
Weight generation scheme         WeightScheme... mBecke (2022)
Basis function cutoff            BFCut       ... 1.0000e-11
Integration weight cutoff        WCut        ... 1.0000e-14
Partially contracted basis set               ... on
Rotationally invariant grid construction     ... off
Angular grids for H and He will be reduced by one unit

Total number of grid points                  ...    55246
Total number of batches                      ...      454
Average number of points per batch           ...      121
Average number of grid points per atom       ...     1315
UseSFitting                                  ... on

GRIDX 3
-------
General Integration Accuracy     IntAcc      ... 4.338
Radial Grid Type                 RadialGrid  ... OptM3 with GC (2021)
Angular Grid (max. ang.)         AngularGrid ... 3 (Lebedev-194)
Angular grid pruning method      GridPruning ... 4 (adaptive)
Weight generation scheme         WeightScheme... mBecke (2022)
Basis function cutoff            BFCut       ... 1.0000e-11
Integration weight cutoff        WCut        ... 1.0000e-14
Partially contracted basis set               ... on
Rotationally invariant grid construction     ... off
Angular grids for H and He will be reduced by one unit

Total number of grid points                  ...   120857
Total number of batches                      ...      967
Average number of points per batch           ...      124
Average number of grid points per atom       ...     2878
UseSFitting                                  ... on
Initializing property integral containers    ... done (  0.0 sec)

SHARK setup successfully completed in   6.6 seconds

Maximum memory used throughout the entire STARTUP-calculation: 139.8 MB
Occupation numbers will be reassigned to an Aufbau configuration
             **** ENERGY FILE WAS UPDATED (NMU-1.en.tmp) ****
Finished Guess after   0.5 sec
Maximum memory used throughout the entire GUESS-calculation: 89.0 MB
--------------------
CPCM SOLVATION MODEL
--------------------
CPCM parameters:
  Epsilon                                         ...      80.1510
  Refrac                                          ...       1.3328
  Rsolv                                           ...       1.3000
  Surface type                                    ... GAUSSIAN VDW
  Discretization scheme                           ... Constant charge density
    Threshold for H atoms                         ...       5.0000 (charges/Ang^2)
    Threshold for non-H atoms                     ...       5.0000 (charges/Ang^2)
  Epsilon function type                           ...         CPCM
Solvent:                                          ... WATER
Radii:
  Scheme                                          ... Element-dependent radii
  Radius for C  used is    3.8550 Bohr (=   2.0400 Ang.)
  Radius for H  used is    2.4944 Bohr (=   1.3200 Ang.)
  Radius for N  used is    3.5149 Bohr (=   1.8600 Ang.)
  Radius for O  used is    3.4469 Bohr (=   1.8240 Ang.)
Calculating surface                               ...        done! (  0.0s)
Cavity surface points                             ...         3548
Cavity Volume                                     ...    2464.3005
Cavity Surface-area                               ...    1222.0153
Calculating surface distance matrix               ...        done! (  0.0s)
Performing Cholesky decomposition & store         ...        done! (  1.2s)
Overall time for CPCM initialization              ...                 1.2s

----------------------------------------D-I-I-S--------------------------------------------
Iteration    Energy (Eh)           Delta-E    RMSDP     MaxDP     DIISErr   Damp  Time(sec)
-------------------------------------------------------------------------------------------
               ***  Starting incremental Fock matrix formation  ***
    1    -1032.7018992116059053     0.00e+00  6.72e-05  5.60e-03  3.86e-03  0.700  41.2
                              *** Initializing SOSCF ***
---------------------------------------S-O-S-C-F--------------------------------------
Iteration    Energy (Eh)           Delta-E    RMSDP     MaxDP     MaxGrad    Time(sec)
--------------------------------------------------------------------------------------
    2    -1032.7019526740418769    -5.35e-05  1.86e-04  1.40e-02  3.05e-03    15.4
               *** Restarting incremental Fock matrix formation ***
    3    -1032.7021015840919063    -1.49e-04  1.81e-05  7.80e-04  2.02e-04    41.2
    4    -1032.7021073540631733    -5.77e-06  1.06e-05  7.14e-04  6.45e-05    25.0
    5    -1032.7021067257624054     6.28e-07  6.27e-06  5.29e-04  1.33e-04    23.4
    6    -1032.7021077499757666    -1.02e-06  2.82e-06  2.70e-04  6.88e-06    21.8
    7    -1032.7021077547810819    -4.81e-09  1.99e-06  1.31e-04  1.05e-05    17.9
                 **** Energy Check signals convergence ****

               *****************************************************
               *                     SUCCESS                       *
               *           SCF CONVERGED AFTER   7 CYCLES          *
               *****************************************************

Recomputing exchange energy using gridx3       ... done (   66.891 sec)
Old exchange energy                            :    -28.006965986 Eh
New exchange energy                            :    -28.006972727 Eh
Exchange energy change after final integration :     -0.000006741 Eh
Total energy after final integration           :  -1032.702114495 Eh
             **** ENERGY FILE WAS UPDATED (NMU-1.en.tmp) ****

----------------
TOTAL SCF ENERGY
----------------

Total Energy       :      -1032.70211449532394 Eh          -28101.25318 eV

Components:
Nuclear Repulsion  :       1945.25020761579844 Eh           52932.94921 eV
Electronic Energy  :      -2977.92467960383283 Eh          -81033.45019 eV
One Electron Energy:      -5266.59233539958132 Eh         -143311.26325 eV
Two Electron Energy:       2288.66765579574849 Eh           62277.81306 eV
CPCM Dielectric    :         -0.02763576674648 Eh              -0.75201 eV

Virial components:
Potential Energy   :      -2061.07809644874942 Eh          -56084.78630 eV
Kinetic Energy     :       1028.37598195342548 Eh           27983.53312 eV
Virial Ratio       :          2.00420676155202

DFT components:
N(Alpha)           :       83.999839357151 electrons
N(Beta)            :       83.999839357151 electrons
N(Total)           :      167.999678714302 electrons
E(X)               :     -111.301387690120 Eh       
E(C)               :       -6.756656710603 Eh       
E(XC)              :     -118.058044400723 Eh       

CPCM Solvation Model Properties:
Surface-charge          :         -0.03917670896951
Corrected charge        :         -0.00000000000000
Outlying charge corr.   :          0.00007904945869 Eh               0.00215 eV
Free-energy (cav+disp)  :  This term is not implemented in the current solvation scheme

---------------
SCF CONVERGENCE
---------------

  Last Energy change         ...    4.8053e-09  Tolerance :   1.0000e-08
  Last MAX-Density change    ...    1.3135e-04  Tolerance :   1.0000e-07
  Last RMS-Density change    ...    1.9851e-06  Tolerance :   5.0000e-09
  Last DIIS Error            ...    3.0489e-03  Tolerance :   5.0000e-07
  Last Orbital Gradient      ...    1.0519e-05  Tolerance :   1.0000e-05
  Last Orbital Rotation      ...    3.5481e-05  Tolerance :   1.0000e-05


Total SCF time: 0 days 0 hours 4 min 15 sec 
Finished LeanSCF after 255.3 sec

Maximum memory used throughout the entire LEANSCF-calculation: 170.6 MB

------------------------------------------------------------------------------
                         ORCA PROPERTY INTEGRAL CALCULATIONS
------------------------------------------------------------------------------

GBWName                                   ... NMU-1.gbw
Number of atoms                           ...     42
Number of basis functions                 ...    684
Max core memory                           ...   1024 MB

Dipole integrals                          ... YES
Quadrupole integrals                      ...  NO
Linear momentum integrals                 ...  NO
Angular momentum integrals                ...  NO
Higher moments length integrals           ...  NO
Higher moments velocity integrals         ...  NO
Kinetic energy integrals                  ...  NO
GIAO right hand sides                     ...  NO
GIAO dipole derivative integrals          ...  NO
SOC integrals                             ...  NO
EPR diamagnetic integrals (GIAO)          ...  NO
EPR gauge integrals                       ...  NO
Field gradient integrals                  ...  NO (   0 nuclei)
Spin-dipole/Fermi contact integrals       ...  NO (   0 nuclei)
Contact density integrals                 ...  NO (   0 nuclei)
Nucleus-orbit integrals                   ...  NO (   0 nuclei)
Geometric perturbations                   ...  NO (  42 nuclei)

Choice of electric origin   ... Center of mass
Position of electric origin ... ( -2.6813, -5.0706,  0.0577) 
Choice of magnetic origin   ... GIAO
Position of magnetic origin ... (  0.0000,  0.0000,  0.0000) 

Calculating integrals                     ... Electric Dipole (Length)     done (  0.2 sec)

Property integrals calculated in   0.2 sec

Maximum memory used throughout the entire PROPINT-calculation: 84.2 MB


-------------------------------------------------------------------------------
                          DFT DISPERSION CORRECTION                            
                                                                               
                              DFTD3 V3.1  Rev 1                                
                          USING Becke-Johnson damping                          
-------------------------------------------------------------------------------
-------------------------   ----------------
Dispersion correction           -0.098123561
-------------------------   ----------------


-------------------------   --------------------
FINAL SINGLE POINT ENERGY     -1032.800238056740
-------------------------   --------------------

------------------------------------------------------------------------------
                         ORCA SCF GRADIENT CALCULATION
------------------------------------------------------------------------------

Nuc. rep. gradient        (SHARK) ... done (  0.0 sec)
HCore & Overlap gradient  (SHARK) ... done (  1.8 sec)
Split-RIJ-J gradient      (SHARK) ... done ( 10.6 sec)
COSX-gradient                     ... done (128.7 sec)
XC gradient                       ... done ( 15.7 sec)
CPCM gradient                     ... done ( 11.5 sec)
Dispersion correction             ... done (  0.0 sec)

-------------------
DISPERSION GRADIENT
-------------------

   1   C   :   -0.000805993    0.000039508   -0.000030511
   2   C   :   -0.000643954   -0.000239726   -0.000325943
   3   C   :   -0.000460740   -0.000607912   -0.000197070
   4   H   :   -0.000271985   -0.000026829   -0.000410337
   5   H   :   -0.000326906   -0.000109963   -0.000140212
   6   C   :   -0.000132760   -0.000713538   -0.000168492
   7   H   :   -0.000141351   -0.000343314   -0.000175571
   8   H   :   -0.000241346   -0.000394787    0.000133338
   9   C   :   -0.000007854   -0.000079078    0.000028632
  10   N   :   -0.000557419    0.000365463    0.000087513
  11   H   :   -0.000433318   -0.000014491    0.000239956
  12   H   :   -0.000400309    0.000153083   -0.000058060
  13   C   :   -0.000338097    0.000697303    0.000235496
  14   C   :    0.000039643    0.000770821    0.000034950
  15   H   :   -0.000220776    0.000264192    0.000366471
  16   H   :   -0.000266655    0.000332976    0.000032856
  17   C   :    0.000276894    0.000717402    0.000217449
  18   H   :    0.000011376    0.000373999    0.000039076
  19   H   :    0.000034667    0.000428040   -0.000245424
  20   C   :    0.000312107    0.000376912    0.000166336
  21   H   :    0.000181645    0.000279342    0.000355100
  22   H   :    0.000221279    0.000361960    0.000004466
  23   C   :   -0.000001000   -0.000748185   -0.000185517
  24   C   :    0.000298181    0.000038945    0.000063530
  25   C   :    0.000009747   -0.000441806   -0.000097107
  26   O   :    0.000400569    0.000334047    0.000133632
  27   C   :    0.000393098    0.000601093    0.000183684
  28   C   :   -0.000141839   -0.000455103   -0.000098367
  29   C   :    0.000055133    0.000102787    0.000040337
  30   O   :    0.000369142    0.000687255    0.000174818
  31   C   :    0.000264226   -0.000199439   -0.000048500
  32   C   :    0.000555848   -0.000061932    0.000467674
  33   C   :    0.000196052   -0.000467695   -0.000541358
  34   N   :    0.000252356   -0.000435962   -0.000405445
  35   C   :    0.000472767   -0.000352908   -0.000078548
  36   C   :    0.000554243   -0.000174819    0.000261337
  37   H   :   -0.000038630   -0.000202958   -0.000383252
  38   H   :    0.000256115   -0.000003426    0.000206834
  39   H   :    0.000244843   -0.000194136   -0.000053716
  40   H   :    0.000193304    0.000103680    0.000361627
  41   H   :   -0.000030072   -0.000403294   -0.000114832
  42   H   :   -0.000132230   -0.000357505   -0.000076850

Difference to translation invariance:
           :    0.0000000000    0.0000000000   -0.0000000000

Difference to rotation invariance:
           :   -0.0000000000   -0.0000000000    0.0000000000

Norm of the Dispersion gradient    ...    0.0036578318
RMS gradient                       ...    0.0003258656
MAX gradient                       ...    0.0008059931

------------------
CARTESIAN GRADIENT
------------------

   1   C   :    0.000039675   -0.000064018    0.000071959
   2   C   :    0.000275432    0.000107514    0.000040856
   3   C   :    0.000022686    0.000069028    0.000034272
   4   H   :   -0.000104303   -0.000043286   -0.000028084
   5   H   :   -0.000010956    0.000017095    0.000030023
   6   C   :   -0.000038545   -0.000014523   -0.000007696
   7   H   :   -0.000005449    0.000032343   -0.000029747
   8   H   :    0.000036599   -0.000006699   -0.000012286
   9   C   :   -0.000061950    0.000116318   -0.000045006
  10   N   :    0.000169487   -0.000108514    0.000090899
  11   H   :   -0.000000520    0.000037253   -0.000012027
  12   H   :    0.000030455    0.000001260   -0.000019990
  13   C   :    0.000064766   -0.000058063   -0.000018990
  14   C   :   -0.000080766   -0.000174536   -0.000102503
  15   H   :   -0.000062457    0.000012965   -0.000022905
  16   H   :    0.000017781   -0.000006221   -0.000044226
  17   C   :   -0.000060797   -0.000169729    0.000012013
  18   H   :   -0.000016640   -0.000031054    0.000074030
  19   H   :    0.000056417    0.000050983    0.000030649
  20   C   :    0.000086396    0.000021183   -0.000000895
  21   H   :    0.000003148    0.000022875   -0.000018176
  22   H   :   -0.000018809    0.000024651    0.000003524
  23   C   :    0.000017121    0.000105650    0.000028660
  24   C   :   -0.000134476    0.000046749   -0.000164498
  25   C   :   -0.000074658   -0.000067438    0.000041574
  26   O   :   -0.000111774    0.000097581   -0.000300506
  27   C   :    0.000305556   -0.000370595    0.001378157
  28   C   :    0.000219965    0.000180117    0.000068586
  29   C   :   -0.000334844   -0.000047926   -0.000516787
  30   O   :   -0.000131528    0.000041302   -0.000543215
  31   C   :    0.000245032    0.000039690   -0.000091415
  32   C   :   -0.000265394    0.000002720   -0.000108251
  33   C   :   -0.000113791    0.000107640    0.000103014
  34   N   :    0.000034972    0.000003092    0.000013143
  35   C   :   -0.000046108    0.000038207   -0.000050736
  36   C   :    0.000034834    0.000010689    0.000062559
  37   H   :   -0.000013435    0.000001248    0.000006924
  38   H   :   -0.000036855    0.000023763    0.000014188
  39   H   :   -0.000012585   -0.000001445   -0.000020712
  40   H   :    0.000065621   -0.000051727    0.000012846
  41   H   :   -0.000013807    0.000018573    0.000001062
  42   H   :    0.000024505   -0.000014717    0.000039714

Difference to translation invariance:
           :    0.0000000000    0.0000000000    0.0000000000

Difference to rotation invariance:
           :    0.0008374050    0.0003392192   -0.0000554316

Norm of the Cartesian gradient     ...    0.0019036007
RMS gradient                       ...    0.0001695862
MAX gradient                       ...    0.0013781567

-------
TIMINGS
-------

Total SCF gradient time     ....      168.428 sec

Densities                   ....       0.004 sec  (  0.0%)
One electron gradient       ....       1.768 sec  (  1.0%)
RI-J Coulomb gradient       ....      10.634 sec  (  6.3%)
COSX gradient               ....     128.747 sec  ( 76.4%)
XC gradient                 ....      15.732 sec  (  9.3%)
CPCM gradient               ....      11.520 sec  (  6.8%)
   A-Matrix (El+Nuc)        ....       0.258 sec  (  0.2%)
   Potential                ....      11.263 sec  (  6.7%)

Maximum memory used throughout the entire SCFGRAD-calculation: 149.7 MB
------------------------------------------------------------------------------
                         ORCA GEOMETRY RELAXATION STEP
------------------------------------------------------------------------------

Reading the OPT-File                    .... done
Getting information on internals        .... done
Copying old internal coords+grads       .... done
Making the new internal coordinates     .... (2022 redundants) done
Validating the new internal coordinates .... (2022 redundants) done
Calculating the B-matrix                .... done
Calculating the G,G- and P matrices     .... done
Transforming gradient to internals      .... done
Projecting the internal gradient        .... done
Number of atoms                         ....  42
Number of internal coordinates          .... 241
Current Energy                          .... -1032.800238057 Eh
Current gradient norm                   ....     0.001903601 Eh/bohr
Maximum allowed component of the step   ....  0.300
Current trust radius                    ....  0.300
Updating the Hessian (BFGS)             .... done
Forming the augmented Hessian           .... done
Diagonalizing the augmented Hessian     .... done
Last element of RFO vector              ....  0.999660889
Lowest eigenvalues of augmented Hessian:
 -0.000017627  0.009361016  0.014991710  0.015794117  0.016517370
Length of the computed step             ....  0.026049308
The final length of the internal step   ....  0.026049308
Converting the step to Cartesian space:
 Initial RMS(Int)=    0.0016779835
Transforming coordinates:
 Iter   0:  RMS(Cart)=    0.0090019291 RMS(Int)=    0.4045401301
done
Storing new coordinates                 .... done
The predicted energy change is          ....    -0.000008820
Previously predicted energy change      ....    -0.000012972
Actually observed energy change         ....     0.000004275
Ratio of predicted to observed change   ....     0.329532071
New trust radius                        ....     0.200000000

                                .--------------------.
          ----------------------|Geometry convergence|-------------------------
          Item                value                   Tolerance       Converged
          ---------------------------------------------------------------------
          Energy change       0.0000042746            0.0000050000      YES
          RMS gradient        0.0000798418            0.0001000000      YES
          MAX gradient        0.0003471286            0.0003000000      NO
          RMS step            0.0016779835            0.0020000000      YES
          MAX step            0.0079434675            0.0040000000      NO
          ........................................................
          Max(Bonds)      0.0003      Max(Angles)    0.04
          Max(Dihed)        0.46      Max(Improp)    0.00
          ---------------------------------------------------------------------

The optimization has not yet converged - more geometry cycles are needed


    ---------------------------------------------------------------------------
                         Redundant Internal Coordinates
                            (Angstroem and degrees)

        Definition                    Value    dE/dq     Step     New-Value
    ----------------------------------------------------------------------------
     1. B(C   1,C   0)                1.5171 -0.000123  0.0000    1.5171   
     2. B(C   2,C   1)                1.5219 -0.000118 -0.0000    1.5219   
     3. B(H   3,C   1)                1.0932 -0.000018  0.0000    1.0933   
     4. B(H   4,C   1)                1.0908  0.000003  0.0000    1.0908   
     5. B(C   5,C   2)                1.5080 -0.000163 -0.0000    1.5080   
     6. B(H   6,C   2)                1.0911 -0.000005 -0.0000    1.0911   
     7. B(H   7,C   2)                1.0954 -0.000016  0.0000    1.0955   
     8. B(C   8,C   5)                1.4308 -0.000089 -0.0002    1.4307   
     9. B(N   9,C   8)                1.3663 -0.000249 -0.0000    1.3663   
    10. B(N   9,C   0)                1.4594 -0.000158 -0.0001    1.4593   
    11. B(H  10,C   0)                1.0983 -0.000022  0.0001    1.0984   
    12. B(H  11,C   0)                1.0904 -0.000011  0.0000    1.0904   
    13. B(C  12,N   9)                1.4585 -0.000198 -0.0000    1.4585   
    14. B(C  13,C  12)                1.5169 -0.000142 -0.0000    1.5169   
    15. B(H  14,C  12)                1.0983 -0.000023  0.0001    1.0984   
    16. B(H  15,C  12)                1.0899 -0.000000 -0.0000    1.0899   
    17. B(C  16,C  13)                1.5227 -0.000081 -0.0000    1.5226   
    18. B(H  17,C  13)                1.0907  0.000000  0.0000    1.0907   
    19. B(H  18,C  13)                1.0930 -0.000016  0.0000    1.0930   
    20. B(C  19,C  16)                1.5071 -0.000157 -0.0000    1.5071   
    21. B(C  19,C   8)                1.4171 -0.000136 -0.0001    1.4171   
    22. B(H  20,C  16)                1.0953 -0.000022  0.0000    1.0953   
    23. B(H  21,C  16)                1.0902 -0.000005 -0.0000    1.0902   
    24. B(C  22,C   5)                1.3709 -0.000148 -0.0000    1.3709   
    25. B(C  23,C  19)                1.3818 -0.000224 -0.0000    1.3818   
    26. B(C  24,C  23)                1.4009 -0.000070 -0.0001    1.4009   
    27. B(C  24,C  22)                1.4053 -0.000145 -0.0000    1.4053   
    28. B(O  25,C  23)                1.3710 -0.000041 -0.0001    1.3708   
    29. B(C  26,O  25)                1.3807  0.000077 -0.0003    1.3804   
    30. B(C  27,C  24)                1.4103 -0.000095 -0.0002    1.4101   
    31. B(C  28,C  26)                1.4481 -0.000089  0.0000    1.4482   
    32. B(C  28,C  27)                1.3680 -0.000341  0.0002    1.3682   
    33. B(O  29,C  26)                1.2186 -0.000209  0.0001    1.2187   
    34. B(C  30,C  28)                1.4722 -0.000182 -0.0001    1.4722   
    35. B(C  31,C  30)                1.3967 -0.000209  0.0001    1.3968   
    36. B(C  32,C  30)                1.3993 -0.000191  0.0001    1.3994   
    37. B(N  33,C  32)                1.3333 -0.000010 -0.0000    1.3333   
    38. B(C  34,N  33)                1.3366 -0.000028  0.0000    1.3367   
    39. B(C  35,C  34)                1.3889  0.000028 -0.0001    1.3889   
    40. B(C  35,C  31)                1.3856 -0.000058  0.0000    1.3857   
    41. B(H  36,C  32)                1.0848  0.000002 -0.0000    1.0848   
    42. B(H  37,C  35)                1.0819 -0.000015  0.0000    1.0820   
    43. B(H  38,C  34)                1.0845 -0.000007  0.0000    1.0845   
    44. B(H  39,C  31)                1.0800 -0.000026 -0.0001    1.0799   
    45. B(H  40,C  22)                1.0840 -0.000017  0.0000    1.0840   
    46. B(H  41,C  27)                1.0837  0.000002 -0.0001    1.0836   
    47. A(C   1,C   0,H  10)          110.06  0.000047   -0.01    110.05   
    48. A(C   1,C   0,N   9)          111.37 -0.000026   -0.03    111.34   
    49. A(N   9,C   0,H  11)          107.24  0.000005    0.01    107.25   
    50. A(H  10,C   0,H  11)          107.33 -0.000003    0.02    107.34   
    51. A(C   1,C   0,H  11)          110.62 -0.000010    0.02    110.64   
    52. A(N   9,C   0,H  10)          110.10 -0.000013   -0.00    110.10   
    53. A(C   2,C   1,H   3)          110.28  0.000012   -0.02    110.25   
    54. A(C   0,C   1,H   3)          109.41  0.000042   -0.03    109.38   
    55. A(C   2,C   1,H   4)          110.86 -0.000008    0.03    110.89   
    56. A(H   3,C   1,H   4)          107.72 -0.000016    0.03    107.75   
    57. A(C   0,C   1,H   4)          109.29 -0.000030    0.03    109.32   
    58. A(C   0,C   1,C   2)          109.25  0.000000   -0.04    109.22   
    59. A(C   5,C   2,H   7)          109.29 -0.000029   -0.00    109.29   
    60. A(C   1,C   2,C   5)          111.08 -0.000029   -0.03    111.05   
    61. A(C   5,C   2,H   6)          109.58  0.000034   -0.00    109.58   
    62. A(C   1,C   2,H   7)          108.85  0.000044   -0.01    108.84   
    63. A(C   1,C   2,H   6)          111.20 -0.000020    0.02    111.22   
    64. A(H   6,C   2,H   7)          106.72 -0.000000    0.02    106.74   
    65. A(C   2,C   5,C   8)          120.13  0.000010   -0.01    120.13   
    66. A(C   2,C   5,C  22)          120.40 -0.000014    0.01    120.41   
    67. A(C   8,C   5,C  22)          119.46  0.000003    0.00    119.46   
    68. A(C   5,C   8,N   9)          120.15 -0.000014    0.01    120.15   
    69. A(N   9,C   8,C  19)          120.10  0.000001   -0.01    120.09   
    70. A(C   5,C   8,C  19)          119.74  0.000013    0.00    119.74   
    71. A(C   0,N   9,C   8)          121.43  0.000045   -0.01    121.42   
    72. A(C   8,N   9,C  12)          120.55  0.000075   -0.04    120.51   
    73. A(C   0,N   9,C  12)          115.81 -0.000116    0.04    115.85   
    74. A(H  14,C  12,H  15)          107.42  0.000002    0.02    107.43   
    75. A(C  13,C  12,H  15)          110.61 -0.000007    0.02    110.63   
    76. A(N   9,C  12,H  15)          107.38  0.000015    0.01    107.39   
    77. A(C  13,C  12,H  14)          110.25  0.000032   -0.00    110.25   
    78. A(N   9,C  12,H  14)          110.09  0.000004   -0.00    110.08   
    79. A(N   9,C  12,C  13)          110.99 -0.000046   -0.04    110.95   
    80. A(C  12,C  13,H  17)          109.48 -0.000056    0.04    109.52   
    81. A(C  12,C  13,C  16)          109.98  0.000014   -0.04    109.95   
    82. A(H  17,C  13,H  18)          107.68 -0.000012    0.03    107.70   
    83. A(C  16,C  13,H  18)          110.04 -0.000017   -0.01    110.03   
    84. A(C  12,C  13,H  18)          109.08  0.000061   -0.04    109.04   
    85. A(C  16,C  13,H  17)          110.53  0.000010    0.02    110.55   
    86. A(H  20,C  16,H  21)          106.26  0.000002    0.01    106.27   
    87. A(C  19,C  16,H  21)          109.75  0.000034   -0.01    109.74   
    88. A(C  13,C  16,H  21)          110.47 -0.000032    0.03    110.50   
    89. A(C  19,C  16,H  20)          109.52  0.000023   -0.02    109.50   
    90. A(C  13,C  16,C  19)          111.08 -0.000043   -0.01    111.07   
    91. A(C  13,C  16,H  20)          109.65  0.000019   -0.00    109.65   
    92. A(C  16,C  19,C  23)          120.49  0.000030   -0.02    120.48   
    93. A(C   8,C  19,C  23)          118.00 -0.000024    0.01    118.01   
    94. A(C   8,C  19,C  16)          121.50 -0.000006    0.01    121.51   
    95. A(C   5,C  22,C  24)          122.05 -0.000022   -0.01    122.04   
    96. A(C  24,C  22,H  40)          118.56  0.000026   -0.00    118.56   
    97. A(C   5,C  22,H  40)          119.39 -0.000004    0.01    119.39   
    98. A(C  24,C  23,O  25)          119.42  0.000022    0.01    119.43   
    99. A(C  19,C  23,O  25)          117.11 -0.000055   -0.00    117.11   
   100. A(C  19,C  23,C  24)          123.47  0.000032   -0.01    123.46   
   101. A(C  23,C  24,C  27)          118.27 -0.000032    0.01    118.28   
   102. A(C  22,C  24,C  27)          124.46  0.000036   -0.02    124.44   
   103. A(C  22,C  24,C  23)          117.27 -0.000003    0.01    117.27   
   104. A(C  23,O  25,C  26)          123.65 -0.000030   -0.02    123.63   
   105. A(C  28,C  26,O  29)          126.84  0.000075   -0.01    126.83   
   106. A(O  25,C  26,O  29)          115.81  0.000036   -0.01    115.81   
   107. A(O  25,C  26,C  28)          117.33 -0.000122    0.02    117.36   
   108. A(C  24,C  27,C  28)          122.45  0.000015   -0.01    122.43   
   109. A(C  28,C  27,H  41)          119.51 -0.000039    0.01    119.52   
   110. A(C  24,C  27,H  41)          118.04  0.000025    0.00    118.04   
   111. A(C  27,C  28,C  30)          121.80  0.000007   -0.03    121.77   
   112. A(C  26,C  28,C  30)          119.31 -0.000155    0.04    119.35   
   113. A(C  26,C  28,C  27)          118.87  0.000148   -0.01    118.86   
   114. A(C  31,C  30,C  32)          116.91  0.000121   -0.00    116.90   
   115. A(C  28,C  30,C  32)          120.17 -0.000082    0.00    120.17   
   116. A(C  28,C  30,C  31)          122.92 -0.000039    0.00    122.92   
   117. A(C  35,C  31,H  39)          120.47 -0.000075    0.03    120.50   
   118. A(C  30,C  31,H  39)          120.21  0.000084   -0.02    120.19   
   119. A(C  30,C  31,C  35)          119.32 -0.000009   -0.01    119.31   
   120. A(N  33,C  32,H  36)          116.15  0.000031    0.00    116.15   
   121. A(C  30,C  32,H  36)          119.54  0.000008   -0.01    119.53   
   122. A(C  30,C  32,N  33)          124.31 -0.000039    0.01    124.31   
   123. A(C  32,N  33,C  34)          117.64 -0.000031   -0.00    117.64   
   124. A(C  35,C  34,H  38)          120.56  0.000014   -0.01    120.55   
   125. A(N  33,C  34,H  38)          116.58 -0.000024    0.00    116.59   
   126. A(N  33,C  34,C  35)          122.86  0.000010    0.00    122.86   
   127. A(C  34,C  35,H  37)          120.19  0.000072   -0.02    120.17   
   128. A(C  31,C  35,H  37)          120.85 -0.000021    0.01    120.85   
   129. A(C  31,C  35,C  34)          118.96 -0.000051    0.01    118.97   
   130. D(C   2,C   1,C   0,N   9)     56.82  0.000006    0.10     56.92   
   131. D(C   2,C   1,C   0,H  10)    -65.58  0.000007    0.13    -65.45   
   132. D(C   2,C   1,C   0,H  11)    175.99 -0.000012    0.10    176.09   
   133. D(H   3,C   1,C   0,N   9)    -63.99 -0.000035    0.17    -63.82   
   134. D(H   3,C   1,C   0,H  11)     55.17 -0.000053    0.17     55.35   
   135. D(H   3,C   1,C   0,H  10)    173.61 -0.000033    0.20    173.81   
   136. D(C   5,C   2,C   1,C   0)    -52.01 -0.000007   -0.10    -52.11   
   137. D(H   6,C   2,C   1,C   0)   -174.34 -0.000017   -0.10   -174.44   
   138. D(H   6,C   2,C   1,H   4)     65.15  0.000025   -0.13     65.02   
   139. D(H   6,C   2,C   1,H   3)    -54.05  0.000042   -0.17    -54.23   
   140. D(C   5,C   2,C   1,H   3)     68.28  0.000052   -0.18     68.10   
   141. D(C   5,C   2,C   1,H   4)   -172.51  0.000035   -0.14   -172.65   
   142. D(C   8,C   5,C   2,C   1)     26.27  0.000008    0.03     26.30   
   143. D(C   8,C   5,C   2,H   6)    149.53 -0.000013    0.04    149.57   
   144. D(C  22,C   5,C   2,C   1)   -154.57  0.000003    0.03   -154.54   
   145. D(C   8,C   5,C   2,H   7)    -93.84 -0.000010    0.06    -93.78   
   146. D(C  22,C   5,C   2,H   6)    -31.30 -0.000018    0.03    -31.27   
   147. D(C  19,C   8,C   5,C  22)     -1.32 -0.000017    0.07     -1.24   
   148. D(C  19,C   8,C   5,C   2)    177.85 -0.000022    0.07    177.92   
   149. D(N   9,C   8,C   5,C  22)    177.86 -0.000006    0.05    177.91   
   150. D(N   9,C   8,C   5,C   2)     -2.97 -0.000012    0.04     -2.93   
   151. D(C  12,N   9,C   8,C  19)    -10.80  0.000023   -0.13    -10.92   
   152. D(C  12,N   9,C   8,C   5)    170.03  0.000013   -0.10    169.93   
   153. D(C   0,N   9,C   8,C  19)   -173.23  0.000026   -0.07   -173.30   
   154. D(C   0,N   9,C   8,C   5)      7.60  0.000016   -0.05      7.55   
   155. D(C  12,N   9,C   0,H  10)    -76.12 -0.000008    0.01    -76.11   
   156. D(C  12,N   9,C   0,C   1)    161.50 -0.000040    0.04    161.54   
   157. D(C   8,N   9,C   0,H  11)   -156.44  0.000012   -0.03   -156.47   
   158. D(C   8,N   9,C   0,H  10)     87.09  0.000020   -0.05     87.04   
   159. D(C   8,N   9,C   0,C   1)    -35.28 -0.000013   -0.02    -35.30   
   160. D(C  13,C  12,N   9,C   0)   -157.17 -0.000017    0.15   -157.02   
   161. D(H  15,C  12,N   9,C   0)    -36.16 -0.000043    0.16    -36.00   
   162. D(H  14,C  12,N   9,C   8)    -82.89 -0.000052    0.24    -82.65   
   163. D(H  14,C  12,N   9,C   0)     80.48 -0.000030    0.18     80.66   
   164. D(C  13,C  12,N   9,C   8)     39.46 -0.000039    0.21     39.67   
   165. D(H  17,C  13,C  12,H  15)     61.72  0.000046   -0.18     61.54   
   166. D(H  17,C  13,C  12,H  14)    -56.94  0.000027   -0.21    -57.15   
   167. D(H  17,C  13,C  12,N   9)   -179.20  0.000031   -0.18   -179.37   
   168. D(C  16,C  13,C  12,H  15)   -176.65  0.000031   -0.15   -176.80   
   169. D(C  16,C  13,C  12,H  14)     64.69  0.000013   -0.18     64.51   
   170. D(C  16,C  13,C  12,N   9)    -57.56  0.000016   -0.15    -57.71   
   171. D(H  20,C  16,C  13,H  17)     47.82 -0.000029    0.08     47.90   
   172. D(H  20,C  16,C  13,C  12)    -73.19  0.000025    0.04    -73.15   
   173. D(C  19,C  16,C  13,H  18)    -72.20 -0.000036    0.09    -72.11   
   174. D(C  19,C  16,C  13,H  17)    169.00 -0.000016    0.05    169.05   
   175. D(H  20,C  16,C  13,H  18)    166.62 -0.000049    0.12    166.74   
   176. D(C  19,C  16,C  13,C  12)     48.00  0.000038    0.01     48.01   
   177. D(C  23,C  19,C  16,H  20)    -79.82 -0.000008    0.05    -79.77   
   178. D(C   8,C  19,C  16,H  21)   -143.46  0.000009    0.05   -143.41   
   179. D(C   8,C  19,C  16,H  20)    100.25 -0.000026    0.05    100.30   
   180. D(C   8,C  19,C  16,C  13)    -21.01 -0.000037    0.07    -20.94   
   181. D(C  23,C  19,C   8,N   9)   -178.71 -0.000006   -0.02   -178.73   
   182. D(C  23,C  19,C   8,C   5)      0.47  0.000005   -0.05      0.42   
   183. D(C  23,C  19,C  16,C  13)    158.92 -0.000019    0.07    158.99   
   184. D(C  16,C  19,C   8,N   9)      1.22  0.000012   -0.02      1.20   
   185. D(C  16,C  19,C   8,C   5)   -179.60  0.000022   -0.04   -179.64   
   186. D(H  40,C  22,C   5,C   8)   -179.36  0.000018   -0.05   -179.41   
   187. D(H  40,C  22,C   5,C   2)      1.47  0.000023   -0.04      1.43   
   188. D(C  24,C  22,C   5,C   8)      1.17  0.000015   -0.05      1.12   
   189. D(C  24,C  22,C   5,C   2)   -178.00  0.000020   -0.04   -178.04   
   190. D(O  25,C  23,C  19,C   8)   -179.23  0.000033   -0.03   -179.27   
   191. D(C  24,C  23,C  19,C  16)   -179.37 -0.000008   -0.01   -179.38   
   192. D(C  24,C  23,C  19,C   8)      0.56  0.000009   -0.01      0.55   
   193. D(O  25,C  23,C  19,C  16)      0.84  0.000016   -0.04      0.80   
   194. D(C  27,C  24,C  23,O  25)     -0.24 -0.000089    0.20     -0.04   
   195. D(C  27,C  24,C  23,C  19)    179.97 -0.000064    0.18    180.15   
   196. D(C  22,C  24,C  23,O  25)    179.06 -0.000035    0.06    179.12   
   197. D(C  22,C  24,C  23,C  19)     -0.73 -0.000010    0.04     -0.69   
   198. D(C  27,C  24,C  22,H  40)     -0.39  0.000052   -0.16     -0.55   
   199. D(C  27,C  24,C  22,C   5)    179.08  0.000054   -0.16    178.92   
   200. D(C  23,C  24,C  22,H  40)   -179.64 -0.000005   -0.01   -179.65   
   201. D(C  23,C  24,C  22,C   5)     -0.17 -0.000003   -0.01     -0.18   
   202. D(C  26,O  25,C  23,C  24)      0.47 -0.000054    0.03      0.51   
   203. D(C  26,O  25,C  23,C  19)   -179.72 -0.000077    0.05   -179.67   
   204. D(O  29,C  26,O  25,C  23)    178.42 -0.000313    0.31    178.72   
   205. D(C  28,C  26,O  25,C  23)     -0.47  0.000238   -0.35     -0.81   
   206. D(H  41,C  27,C  24,C  23)    179.00  0.000086   -0.23    178.78   
   207. D(H  41,C  27,C  24,C  22)     -0.24  0.000029   -0.08     -0.32   
   208. D(C  28,C  27,C  24,C  23)      0.02  0.000035   -0.10     -0.08   
   209. D(C  28,C  27,C  24,C  22)   -179.22 -0.000023    0.05   -179.17   
   210. D(C  30,C  28,C  27,H  41)      2.02  0.000093   -0.12      1.90   
   211. D(C  30,C  28,C  27,C  24)   -179.02  0.000146   -0.24   -179.26   
   212. D(C  26,C  28,C  27,H  41)   -178.99  0.000098   -0.09   -179.08   
   213. D(C  26,C  28,C  27,C  24)     -0.03  0.000151   -0.22     -0.24   
   214. D(C  30,C  28,C  26,O  29)      0.51  0.000347   -0.28      0.23   
   215. D(C  30,C  28,C  26,O  25)    179.25 -0.000273    0.46    179.71   
   216. D(C  27,C  28,C  26,O  29)   -178.51  0.000340   -0.30   -178.81   
   217. D(C  27,C  28,C  26,O  25)      0.23 -0.000280    0.43      0.66   
   218. D(C  32,C  30,C  28,C  27)     38.87  0.000021   -0.27     38.59   
   219. D(C  32,C  30,C  28,C  26)   -140.12  0.000013   -0.30   -140.42   
   220. D(C  31,C  30,C  28,C  27)   -139.95  0.000041   -0.24   -140.19   
   221. D(C  31,C  30,C  28,C  26)     41.06  0.000033   -0.27     40.79   
   222. D(H  39,C  31,C  30,C  32)    179.86  0.000022   -0.01    179.85   
   223. D(H  39,C  31,C  30,C  28)     -1.28  0.000000   -0.04     -1.33   
   224. D(C  35,C  31,C  30,C  32)     -0.74  0.000023   -0.04     -0.78   
   225. D(C  35,C  31,C  30,C  28)    178.11  0.000001   -0.06    178.05   
   226. D(H  36,C  32,C  30,C  31)   -178.21 -0.000021    0.11   -178.10   
   227. D(H  36,C  32,C  30,C  28)      2.90 -0.000000    0.14      3.04   
   228. D(N  33,C  32,C  30,C  31)      1.00 -0.000031    0.02      1.03   
   229. D(N  33,C  32,C  30,C  28)   -177.88 -0.000010    0.05   -177.83   
   230. D(C  34,N  33,C  32,H  36)    178.69  0.000004   -0.08    178.61   
   231. D(C  34,N  33,C  32,C  30)     -0.55  0.000014    0.01     -0.54   
   232. D(H  38,C  34,N  33,C  32)   -179.96 -0.000002   -0.02   -179.98   
   233. D(C  35,C  34,N  33,C  32)     -0.16  0.000014   -0.03     -0.19   
   234. D(H  37,C  35,C  34,H  38)     -0.22 -0.000000    0.00     -0.22   
   235. D(H  37,C  35,C  34,N  33)    179.98 -0.000017    0.02    180.00   
   236. D(C  31,C  35,C  34,H  38)   -179.84 -0.000004    0.00   -179.83   
   237. D(C  31,C  35,C  34,N  33)      0.37 -0.000020    0.02      0.39   
   238. D(H  37,C  35,C  31,H  39)     -0.10 -0.000002   -0.01     -0.11   
   239. D(H  37,C  35,C  31,C  30)   -179.49 -0.000004    0.02   -179.48   
   240. D(C  34,C  35,C  31,H  39)    179.51  0.000002   -0.01    179.50   
   241. D(C  34,C  35,C  31,C  30)      0.12  0.000000    0.02      0.13   
    ----------------------------------------------------------------------------

Geometry step timings:
Preparation and reading OPT file:      0.001 s ( 0.351 %)
Internal coordinates            :      0.000 s ( 0.008 %)
B/P matrices and projection     :      0.004 s ( 1.278 %)
Hessian update/contruction      :      0.263 s (91.934 %)
Making the step                 :      0.002 s ( 0.827 %)
Converting the step to Cartesian:      0.000 s ( 0.119 %)
Storing new data                :      0.003 s ( 0.897 %)
Checking convergence            :      0.000 s ( 0.005 %)
Final printing                  :      0.013 s ( 4.581 %)
Total time                      :      0.286 s

Time for energy+gradient        :    431.565 s
Time for complete geometry iter :    431.980 s

         *************************************************************
         *                GEOMETRY OPTIMIZATION CYCLE   4            *
         *************************************************************
---------------------------------
CARTESIAN COORDINATES (ANGSTROEM)
---------------------------------
  C     -6.548103   -1.507915   -0.075608
  C     -6.546814   -2.650125   -1.074113
  C     -5.549466   -3.707822   -0.623973
  H     -6.273870   -2.268481   -2.061588
  H     -7.551723   -3.068405   -1.145373
  C     -4.197828   -3.096977   -0.351955
  H     -5.449946   -4.499163   -1.368535
  H     -5.923719   -4.180365    0.290712
  C     -4.094532   -1.720739    0.024975
  N     -5.213532   -0.938891    0.081961
  H     -6.926941   -1.856315    0.894712
  H     -7.204587   -0.704642   -0.411426
  C     -5.156077    0.394310    0.670552
  C     -3.870361    1.101683    0.286480
  H     -5.241719    0.328079    1.763584
  H     -6.022029    0.948054    0.308129
  C     -2.670596    0.275921    0.730463
  H     -3.846525    2.090052    0.747127
  H     -3.849334    1.239626   -0.797570
  C     -2.824585   -1.166475    0.321718
  H     -2.563146    0.338100    1.818699
  H     -1.750742    0.681845    0.309022
  C     -3.061071   -3.857335   -0.446336
  C     -1.718806   -1.989337    0.224709
  C     -1.788318   -3.334228   -0.161124
  O     -0.501456   -1.438379    0.530815
  C      0.689046   -2.134706    0.473134
  C     -0.589966   -4.075080   -0.220534
  C      0.626920   -3.527680    0.082107
  O      1.690081   -1.498132    0.752248
  C      1.871081   -4.310332   -0.000179
  C      2.899383   -4.202327    0.938979
  C      2.055687   -5.230517   -1.038158
  N      3.128991   -6.010662   -1.168892
  C      4.094487   -5.895669   -0.251691
  C      4.021656   -5.005002    0.811474
  H      1.297855   -5.326895   -1.808355
  H      4.829116   -4.947908    1.529365
  H      4.959667   -6.537894   -0.374561
  H      2.813443   -3.506923    1.760686
  H     -3.139693   -4.897404   -0.741385
  H     -0.650608   -5.120295   -0.499834

----------------------------
CARTESIAN COORDINATES (A.U.)
----------------------------
  NO LB      ZA    FRAG     MASS         X           Y           Z
   0 C     6.0000    0    12.011  -12.374122   -2.849547   -0.142878
   1 C     6.0000    0    12.011  -12.371685   -5.008010   -2.029779
   2 C     6.0000    0    12.011  -10.486972   -7.006767   -1.179138
   3 H     1.0000    0     1.008  -11.855896   -4.286808   -3.895836
   4 H     1.0000    0     1.008  -14.270689   -5.798446   -2.164440
   5 C     6.0000    0    12.011   -7.932745   -5.852439   -0.665099
   6 H     1.0000    0     1.008  -10.298905   -8.502186   -2.586157
   7 H     1.0000    0     1.008  -11.194206   -7.899745    0.549366
   8 C     6.0000    0    12.011   -7.737545   -3.251726    0.047195
   9 N     7.0000    0    14.007   -9.852147   -1.774247    0.154885
  10 H     1.0000    0     1.008  -13.090021   -3.507926    1.690761
  11 H     1.0000    0     1.008  -13.614697   -1.331581   -0.777482
  12 C     6.0000    0    12.011   -9.743573    0.745139    1.267159
  13 C     6.0000    0    12.011   -7.313923    2.081879    0.541368
  14 H     1.0000    0     1.008   -9.905414    0.619980    3.332691
  15 H     1.0000    0     1.008  -11.379985    1.791563    0.582279
  16 C     6.0000    0    12.011   -5.046695    0.521415    1.380376
  17 H     1.0000    0     1.008   -7.268879    3.949625    1.411866
  18 H     1.0000    0     1.008   -7.274188    2.342554   -1.507189
  19 C     6.0000    0    12.011   -5.337692   -2.204318    0.607959
  20 H     1.0000    0     1.008   -4.843644    0.638916    3.436843
  21 H     1.0000    0     1.008   -3.308423    1.288500    0.583966
  22 C     6.0000    0    12.011   -5.784587   -7.289306   -0.843454
  23 C     6.0000    0    12.011   -3.248072   -3.759302    0.424638
  24 C     6.0000    0    12.011   -3.379432   -6.300778   -0.304481
  25 O     8.0000    0    15.999   -0.947614   -2.718142    1.003094
  26 C     6.0000    0    12.011    1.302108   -4.034010    0.894095
  27 C     6.0000    0    12.011   -1.114875   -7.700786   -0.416748
  28 C     6.0000    0    12.011    1.184708   -6.666348    0.155159
  29 O     8.0000    0    15.999    3.193790   -2.831060    1.421543
  30 C     6.0000    0    12.011    3.535831   -8.145348   -0.000339
  31 C     6.0000    0    12.011    5.479040   -7.941247    1.774413
  32 C     6.0000    0    12.011    3.884685   -9.884245   -1.961835
  33 N     7.0000    0    14.007    5.912937  -11.358505   -2.208885
  34 C     6.0000    0    12.011    7.737459  -11.141201   -0.475627
  35 C     6.0000    0    12.011    7.599828   -9.458084    1.533464
  36 H     1.0000    0     1.008    2.452591  -10.066373   -3.417296
  37 H     1.0000    0     1.008    9.125707   -9.350190    2.890080
  38 H     1.0000    0     1.008    9.372412  -12.354828   -0.707817
  39 H     1.0000    0     1.008    5.316637   -6.627124    3.327215
  40 H     1.0000    0     1.008   -5.933159   -9.254752   -1.401015
  41 H     1.0000    0     1.008   -1.229470   -9.675956   -0.944550

--------------------------------
INTERNAL COORDINATES (ANGSTROEM)
--------------------------------
 C      0   0   0     0.000000000000     0.00000000     0.00000000
 C      1   0   0     1.517120624818     0.00000000     0.00000000
 C      2   1   0     1.521857631990   109.21654799     0.00000000
 H      2   1   3     1.093278195154   109.38168886   239.25419473
 H      2   1   3     1.090816156065   109.32396759   121.49106657
 C      3   2   1     1.507996064672   111.05275783   307.88557334
 H      3   2   1     1.091099366938   111.22303175   185.56208460
 H      3   2   1     1.095450014139   108.83736290    68.23767989
 C      6   3   2     1.430656285580   120.12595915    26.30257773
 N      9   6   3     1.366269981471   120.15482380   357.06987075
 H      1   2   3     1.098371884588   110.05428928   294.55237272
 H      1   2   3     1.090409367060   110.63669128   176.09134484
 C     10   9   6     1.458480598389   120.50833882   169.92919254
 C     13  10   9     1.516888716472   110.94573677    39.66574599
 H     13  10   9     1.098381128541   110.08463675   277.34705667
 H     13  10   9     1.089887821026   107.39359172   160.67879327
 C     14  13  10     1.522643222795   109.94605943   302.28971207
 H     14  13  10     1.090704645089   109.52179166   180.62701366
 H     14  13  10     1.092993166132   109.04348911    63.00044404
 C      9   6   3     1.417050300838   119.74494406   177.91709344
 H     17  14  13     1.095293891740   109.64673732   286.85148948
 H     17  14  13     1.090192053547   110.49867245   170.03900935
 C      6   3   2     1.370863283939   120.40799930   205.45633690
 C     20   9   6     1.381759933718   118.00582887     0.42418800
 C     24  20   9     1.400868186011   123.45950317     0.55136943
 O     24  20   9     1.370837784275   117.10627299   180.73415658
 C     26  24  20     1.380395736212   123.62805923   180.33195235
 C     25  24  20     1.410120410425   118.28277277   180.14892031
 C     28  25  24     1.368229418471   122.43266075   359.92484065
 O     27  26  24     1.218688887887   115.80731417   178.72172415
 C     29  28  25     1.472159062458   121.77501515   180.73744361
 C     31  29  28     1.396813697304   122.92042812   219.80529621
 C     31  29  28     1.399364091250   120.16817297    38.59349714
 N     33  31  29     1.333304256959   124.31112581   182.16786212
 C     34  33  31     1.336660722683   117.63544456   359.45834682
 C     32  31  29     1.385655908993   119.31335830   178.04550065
 H     33  31  29     1.084804283132   119.53108397     3.04237127
 H     36  32  31     1.081951308277   120.85192776   180.52339173
 H     35  34  33     1.084474469345   116.58762380   180.01850619
 H     32  31  29     1.079895862702   120.18623858   358.67495113
 H     23   6   3     1.083964652021   119.39253002     1.43233637
 H     28  25  24     1.083586688350   118.03935564   178.77543053

---------------------------
INTERNAL COORDINATES (A.U.)
---------------------------
 C      0   0   0     0.000000000000     0.00000000     0.00000000
 C      1   0   0     2.866942493030     0.00000000     0.00000000
 C      2   1   0     2.875894139279   109.21654799     0.00000000
 H      2   1   3     2.065996377029   109.38168886   239.25419473
 H      2   1   3     2.061343797419   109.32396759   121.49106657
 C      3   2   1     2.849699573261   111.05275783   307.88557334
 H      3   2   1     2.061878988408   111.22303175   185.56208460
 H      3   2   1     2.070100520124   108.83736290    68.23767989
 C      6   3   2     2.703548571519   120.12595915    26.30257773
 N      9   6   3     2.581876089978   120.15482380   357.06987075
 H      1   2   3     2.075622055070   110.05428928   294.55237272
 H      1   2   3     2.060575077606   110.63669128   176.09134484
 C     10   9   6     2.756128902593   120.50833882   169.92919254
 C     13  10   9     2.866504249768   110.94573677    39.66574599
 H     13  10   9     2.075639523610   110.08463675   277.34705667
 H     13  10   9     2.059589498436   107.39359172   160.67879327
 C     14  13  10     2.877378690754   109.94605943   302.28971207
 H     14  13  10     2.061133072214   109.52179166   180.62701366
 H     14  13  10     2.065457750237   109.04348911    63.00044404
 C      9   6   3     2.677836986574   119.74494406   177.91709344
 H     17  14  13     2.069805491545   109.64673732   286.85148948
 H     17  14  13     2.060164414582   110.49867245   170.03900935
 C      6   3   2     2.590556173692   120.40799930   205.45633690
 C     20   9   6     2.611147857552   118.00582887     0.42418800
 C     24  20   9     2.647257221284   123.45950317     0.55136943
 O     24  20   9     2.590507986311   117.10627299   180.73415658
 C     26  24  20     2.608569897873   123.62805923   180.33195235
 C     25  24  20     2.664741391556   118.28277277   180.14892031
 C     28  25  24     2.585578889284   122.43266075   359.92484065
 O     27  26  24     2.302988240560   115.80731417   178.72172415
 C     29  28  25     2.781977453615   121.77501515   180.73744361
 C     31  29  28     2.639595348014   122.92042812   219.80529621
 C     31  29  28     2.644414894106   120.16817297    38.59349714
 N     33  31  29     2.519579898843   124.31112581   182.16786212
 C     34  33  31     2.525922699839   117.63544456   359.45834682
 C     32  31  29     2.618510183847   119.31335830   178.04550065
 H     33  31  29     2.049983004024   119.53108397     3.04237127
 H     36  32  31     2.044591662882   120.85192776   180.52339173
 H     35  34  33     2.049359746292   116.58762380   180.01850619
 H     32  31  29     2.040707433661   120.18623858   358.67495113
 H     23   6   3     2.048396331171   119.39253002     1.43233637
 H     28  25  24     2.047682083344   118.03935564   178.77543053

------------------------------------------------------------------------------
                   ___                                                        
                  /   \      - P O W E R E D   B Y -                         
                 /     \                                                     
                 |  |  |   _    _      __       _____    __    __             
                 |  |  |  | |  | |    /  \     |  _  \  |  |  /  |          
                  \  \/   | |  | |   /    \    | | | |  |  | /  /          
                 / \  \   | |__| |  /  /\  \   | |_| |  |  |/  /          
                |  |  |   |  __  | /  /__\  \  |    /   |      \           
                |  |  |   | |  | | |   __   |  |    \   |  |\   \          
                \     /   | |  | | |  |  |  |  | |\  \  |  | \   \       
                 \___/    |_|  |_| |__|  |__|  |_| \__\ |__|  \__/        
                                                                              
                      - O R C A' S   B I G   F R I E N D -                    
                                      &                                       
                       - I N T E G R A L  F E E D E R -                       
                                                                              
 v1 FN, 2020, v2 2021, v3 2022-2024                                           
------------------------------------------------------------------------------


----------------------
SHARK INTEGRAL PACKAGE
----------------------

Number of atoms                             ...     42
Number of basis functions                   ...    684
Number of shells                            ...    312
Maximum angular momentum                    ...      2
Integral batch strategy                     ... SHARK/LIBINT Hybrid
RI-J (if used) integral strategy            ... SPLIT-RIJ (Revised 2003 algorithm where possible)
Printlevel                                  ...      1
Contraction scheme used                     ... SEGMENTED contraction
Prescreening option                         ... SCHWARTZ
   Thresh                                   ... 2.500e-11
   Tcut                                     ... 2.500e-12
   Tpresel                                  ... 2.500e-12 
Coulomb Range Separation                    ... NOT USED
Exchange Range Separation                   ... NOT USED
Multipole approximations                    ... NOT USED
Finite Nucleus Model                        ... NOT USED
CABS basis                                  ... NOT available
Auxiliary Coulomb fitting basis             ... AVAILABLE
   # of basis functions in Aux-J            ...   1374
   # of shells in Aux-J                     ...    450
   Maximum angular momentum in Aux-J        ...      4
Auxiliary J/K fitting basis                 ... NOT available
Auxiliary Correlation fitting basis         ... AVAILABLE
   # of basis functions in Aux-C            ...   2094
   # of shells in Aux-C                     ...    654
   Maximum angular momentum in Aux-C        ...      4
Auxiliary 'external' fitting basis          ... NOT available

Checking pre-screening integrals            ... done (  0.0 sec) Dimension = 312
Check shell pair data                       ... done (  0.0 sec)
Shell pair information
Shell pair cut-off parameter TPreSel        ...   2.5e-12
Total number of shell pairs                 ...     48828
Shell pairs after pre-screening             ...     32460
Total number of primitive shell pairs       ...    159912
Primitive shell pairs kept                  ...     69867
          la=0 lb=0:   9559 shell pairs
          la=1 lb=0:  10776 shell pairs
          la=1 lb=1:   3030 shell pairs
          la=2 lb=0:   5327 shell pairs
          la=2 lb=1:   3012 shell pairs
          la=2 lb=2:    756 shell pairs

Calculating one electron integrals          ... done (  0.1 sec)
Calculating RI/J V-Matrix + Cholesky decomp.... done (  0.6 sec)
Calculating RI/C V-Matrix + Cholesky decomp.... done (  1.8 sec)
Calculating Nuclear repulsion               ... done (  0.0 sec) ENN=   1945.371923928040 Eh

Diagonalization of the overlap matrix:
Smallest eigenvalue                        ... 3.364e-06
Time for diagonalization                   ...    0.038 sec
Threshold for overlap eigenvalues          ... 1.000e-07
Number of eigenvalues below threshold      ... 0
Time for construction of square roots      ...    0.493 sec
Total time needed                          ...    0.541 sec

-------------------
DFT GRID GENERATION
-------------------

General Integration Accuracy     IntAcc      ... 4.388
Radial Grid Type                 RadialGrid  ... OptM3 with GC (2021)
Angular Grid (max. ang.)         AngularGrid ... 4 (Lebedev-302)
Angular grid pruning method      GridPruning ... 4 (adaptive)
Weight generation scheme         WeightScheme... mBecke (2022)
Basis function cutoff            BFCut       ... 1.0000e-11
Integration weight cutoff        WCut        ... 1.0000e-14
Partially contracted basis set               ... off
Rotationally invariant grid construction     ... off
Angular grids for H and He will be reduced by one unit

Total number of grid points                  ...   200203
Total number of batches                      ...     3147
Average number of points per batch           ...       63
Average number of grid points per atom       ...     4767

--------------------
COSX GRID GENERATION
--------------------

GRIDX 1
-------
General Integration Accuracy     IntAcc      ... 3.816
Radial Grid Type                 RadialGrid  ... OptM3 with GC (2021)
Angular Grid (max. ang.)         AngularGrid ... 1 (Lebedev-50)
Angular grid pruning method      GridPruning ... 4 (adaptive)
Weight generation scheme         WeightScheme... mBecke (2022)
Basis function cutoff            BFCut       ... 1.0000e-11
Integration weight cutoff        WCut        ... 1.0000e-14
Partially contracted basis set               ... on
Rotationally invariant grid construction     ... off
Angular grids for H and He will be reduced by one unit

Total number of grid points                  ...    25399
Total number of batches                      ...      225
Average number of points per batch           ...      112
Average number of grid points per atom       ...      605
UseSFitting                                  ... on

GRIDX 2
-------
General Integration Accuracy     IntAcc      ... 4.020
Radial Grid Type                 RadialGrid  ... OptM3 with GC (2021)
Angular Grid (max. ang.)         AngularGrid ... 2 (Lebedev-110)
Angular grid pruning method      GridPruning ... 4 (adaptive)
Weight generation scheme         WeightScheme... mBecke (2022)
Basis function cutoff            BFCut       ... 1.0000e-11
Integration weight cutoff        WCut        ... 1.0000e-14
Partially contracted basis set               ... on
Rotationally invariant grid construction     ... off
Angular grids for H and He will be reduced by one unit

Total number of grid points                  ...    55252
Total number of batches                      ...      454
Average number of points per batch           ...      121
Average number of grid points per atom       ...     1316
UseSFitting                                  ... on

GRIDX 3
-------
General Integration Accuracy     IntAcc      ... 4.338
Radial Grid Type                 RadialGrid  ... OptM3 with GC (2021)
Angular Grid (max. ang.)         AngularGrid ... 3 (Lebedev-194)
Angular grid pruning method      GridPruning ... 4 (adaptive)
Weight generation scheme         WeightScheme... mBecke (2022)
Basis function cutoff            BFCut       ... 1.0000e-11
Integration weight cutoff        WCut        ... 1.0000e-14
Partially contracted basis set               ... on
Rotationally invariant grid construction     ... off
Angular grids for H and He will be reduced by one unit

Total number of grid points                  ...   120855
Total number of batches                      ...      967
Average number of points per batch           ...      124
Average number of grid points per atom       ...     2878
UseSFitting                                  ... on
Initializing property integral containers    ... done (  0.0 sec)

SHARK setup successfully completed in   9.5 seconds

Maximum memory used throughout the entire STARTUP-calculation: 139.8 MB
Occupation numbers will be reassigned to an Aufbau configuration
             **** ENERGY FILE WAS UPDATED (NMU-1.en.tmp) ****
Finished Guess after   0.5 sec
Maximum memory used throughout the entire GUESS-calculation: 89.0 MB
--------------------
CPCM SOLVATION MODEL
--------------------
CPCM parameters:
  Epsilon                                         ...      80.1510
  Refrac                                          ...       1.3328
  Rsolv                                           ...       1.3000
  Surface type                                    ... GAUSSIAN VDW
  Discretization scheme                           ... Constant charge density
    Threshold for H atoms                         ...       5.0000 (charges/Ang^2)
    Threshold for non-H atoms                     ...       5.0000 (charges/Ang^2)
  Epsilon function type                           ...         CPCM
Solvent:                                          ... WATER
Radii:
  Scheme                                          ... Element-dependent radii
  Radius for C  used is    3.8550 Bohr (=   2.0400 Ang.)
  Radius for H  used is    2.4944 Bohr (=   1.3200 Ang.)
  Radius for N  used is    3.5149 Bohr (=   1.8600 Ang.)
  Radius for O  used is    3.4469 Bohr (=   1.8240 Ang.)
Calculating surface                               ...        done! (  0.0s)
Cavity surface points                             ...         3553
Cavity Volume                                     ...    2463.9318
Cavity Surface-area                               ...    1222.0259
Calculating surface distance matrix               ...        done! (  0.0s)
Performing Cholesky decomposition & store         ...        done! (  1.2s)
Overall time for CPCM initialization              ...                 1.3s

----------------------------------------D-I-I-S--------------------------------------------
Iteration    Energy (Eh)           Delta-E    RMSDP     MaxDP     DIISErr   Damp  Time(sec)
-------------------------------------------------------------------------------------------
               ***  Starting incremental Fock matrix formation  ***
    1    -1032.7019076843762377     0.00e+00  3.62e-05  4.25e-03  4.23e-03  0.700  41.1
    2    -1032.7019567225388528    -4.90e-05  2.99e-05  3.15e-03  3.33e-03  0.700  15.8
                               ***Turning on AO-DIIS***
                              *** Initializing SOSCF ***
---------------------------------------S-O-S-C-F--------------------------------------
Iteration    Energy (Eh)           Delta-E    RMSDP     MaxDP     MaxGrad    Time(sec)
--------------------------------------------------------------------------------------
    3    -1032.7019959122644650    -3.92e-05  7.66e-05  7.42e-03  2.50e-03    15.1
               *** Restarting incremental Fock matrix formation ***
    4    -1032.7020975869850190    -1.02e-04  1.29e-05  8.97e-04  1.02e-04    41.5
    5    -1032.7020986269903915    -1.04e-06  5.64e-06  2.09e-04  4.47e-05    23.2
    6    -1032.7020984974074054     1.30e-07  3.97e-06  1.53e-04  6.24e-05    22.2
    7    -1032.7020988183317058    -3.21e-07  2.49e-06  1.47e-04  3.89e-06    21.0
    8    -1032.7020988180197492     3.12e-10  1.84e-06  1.77e-04  6.39e-06    16.4
                 **** Energy Check signals convergence ****

               *****************************************************
               *                     SUCCESS                       *
               *           SCF CONVERGED AFTER   8 CYCLES          *
               *****************************************************

Recomputing exchange energy using gridx3       ... done (   66.369 sec)
Old exchange energy                            :    -28.007107570 Eh
New exchange energy                            :    -28.007115179 Eh
Exchange energy change after final integration :     -0.000007609 Eh
Total energy after final integration           :  -1032.702106427 Eh
             **** ENERGY FILE WAS UPDATED (NMU-1.en.tmp) ****

----------------
TOTAL SCF ENERGY
----------------

Total Energy       :      -1032.70210642670622 Eh          -28101.25296 eV

Components:
Nuclear Repulsion  :       1945.37192392804036 Eh           52936.26128 eV
Electronic Energy  :      -2978.04640726702200 Eh          -81036.76257 eV
One Electron Energy:      -5266.83296267077731 Eh         -143317.81105 eV
Two Electron Energy:       2288.78655540375530 Eh           62281.04848 eV
CPCM Dielectric    :         -0.02761547903803 Eh              -0.75146 eV

Virial components:
Potential Energy   :      -2061.08061542545602 Eh          -56084.85484 eV
Kinetic Energy     :       1028.37850899874957 Eh           27983.60189 eV
Virial Ratio       :          2.00420428605822

DFT components:
N(Alpha)           :       83.999841280060 electrons
N(Beta)            :       83.999841280060 electrons
N(Total)           :      167.999682560119 electrons
E(X)               :     -111.301893103869 Eh       
E(C)               :       -6.756725103379 Eh       
E(XC)              :     -118.058618207248 Eh       

CPCM Solvation Model Properties:
Surface-charge          :         -0.03917076308191
Corrected charge        :         -0.00000000000000
Outlying charge corr.   :          0.00007903003287 Eh               0.00215 eV
Free-energy (cav+disp)  :  This term is not implemented in the current solvation scheme

---------------
SCF CONVERGENCE
---------------

  Last Energy change         ...   -3.1196e-10  Tolerance :   1.0000e-08
  Last MAX-Density change    ...    1.7689e-04  Tolerance :   1.0000e-07
  Last RMS-Density change    ...    1.8362e-06  Tolerance :   5.0000e-09
  Last DIIS Error            ...    2.5035e-03  Tolerance :   5.0000e-07
  Last Orbital Gradient      ...    6.3894e-06  Tolerance :   1.0000e-05
  Last Orbital Rotation      ...    1.5038e-05  Tolerance :   1.0000e-05


Total SCF time: 0 days 0 hours 4 min 24 sec 
Finished LeanSCF after 264.7 sec

Maximum memory used throughout the entire LEANSCF-calculation: 171.0 MB

------------------------------------------------------------------------------
                         ORCA PROPERTY INTEGRAL CALCULATIONS
------------------------------------------------------------------------------

GBWName                                   ... NMU-1.gbw
Number of atoms                           ...     42
Number of basis functions                 ...    684
Max core memory                           ...   1024 MB

Dipole integrals                          ... YES
Quadrupole integrals                      ...  NO
Linear momentum integrals                 ...  NO
Angular momentum integrals                ...  NO
Higher moments length integrals           ...  NO
Higher moments velocity integrals         ...  NO
Kinetic energy integrals                  ...  NO
GIAO right hand sides                     ...  NO
GIAO dipole derivative integrals          ...  NO
SOC integrals                             ...  NO
EPR diamagnetic integrals (GIAO)          ...  NO
EPR gauge integrals                       ...  NO
Field gradient integrals                  ...  NO (   0 nuclei)
Spin-dipole/Fermi contact integrals       ...  NO (   0 nuclei)
Contact density integrals                 ...  NO (   0 nuclei)
Nucleus-orbit integrals                   ...  NO (   0 nuclei)
Geometric perturbations                   ...  NO (  42 nuclei)

Choice of electric origin   ... Center of mass
Position of electric origin ... ( -2.6814, -5.0704,  0.0556) 
Choice of magnetic origin   ... GIAO
Position of magnetic origin ... (  0.0000,  0.0000,  0.0000) 

Calculating integrals                     ... Electric Dipole (Length)     done (  0.1 sec)

Property integrals calculated in   0.1 sec

Maximum memory used throughout the entire PROPINT-calculation: 84.2 MB


-------------------------------------------------------------------------------
                          DFT DISPERSION CORRECTION                            
                                                                               
                              DFTD3 V3.1  Rev 1                                
                          USING Becke-Johnson damping                          
-------------------------------------------------------------------------------
-------------------------   ----------------
Dispersion correction           -0.098137307
-------------------------   ----------------


-------------------------   --------------------
FINAL SINGLE POINT ENERGY     -1032.800243733425
-------------------------   --------------------

------------------------------------------------------------------------------
                         ORCA SCF GRADIENT CALCULATION
------------------------------------------------------------------------------

Nuc. rep. gradient        (SHARK) ... done (  0.0 sec)
HCore & Overlap gradient  (SHARK) ... done (  1.8 sec)
Split-RIJ-J gradient      (SHARK) ... done ( 10.6 sec)
COSX-gradient                     ... done (127.6 sec)
XC gradient                       ... done ( 15.5 sec)
CPCM gradient                     ... done ( 12.0 sec)
Dispersion correction             ... done (  0.0 sec)

-------------------
DISPERSION GRADIENT
-------------------

   1   C   :   -0.000806371    0.000038602   -0.000029461
   2   C   :   -0.000644173   -0.000239219   -0.000326206
   3   C   :   -0.000460791   -0.000607652   -0.000197928
   4   H   :   -0.000272193   -0.000025815   -0.000410416
   5   H   :   -0.000326952   -0.000109678   -0.000140747
   6   C   :   -0.000132842   -0.000713482   -0.000170156
   7   H   :   -0.000141369   -0.000343195   -0.000176096
   8   H   :   -0.000241184   -0.000395055    0.000132839
   9   C   :   -0.000008197   -0.000079024    0.000028481
  10   N   :   -0.000557674    0.000364876    0.000089470
  11   H   :   -0.000433046   -0.000015754    0.000240382
  12   H   :   -0.000400827    0.000152920   -0.000057006
  13   C   :   -0.000338058    0.000696418    0.000238929
  14   C   :    0.000039017    0.000770958    0.000036540
  15   H   :   -0.000219750    0.000262764    0.000368347
  16   H   :   -0.000267082    0.000332512    0.000035240
  17   C   :    0.000276566    0.000717581    0.000217750
  18   H   :    0.000011095    0.000374124    0.000039524
  19   H   :    0.000033634    0.000428673   -0.000244750
  20   C   :    0.000312258    0.000377361    0.000165819
  21   H   :    0.000182101    0.000279035    0.000355010
  22   H   :    0.000221127    0.000362237    0.000004249
  23   C   :   -0.000000555   -0.000747978   -0.000187291
  24   C   :    0.000298800    0.000039374    0.000061650
  25   C   :    0.000010155   -0.000441031   -0.000099258
  26   O   :    0.000400651    0.000334684    0.000131775
  27   C   :    0.000394171    0.000601737    0.000178546
  28   C   :   -0.000141001   -0.000454032   -0.000100843
  29   C   :    0.000055789    0.000103977    0.000037444
  30   O   :    0.000369623    0.000686477    0.000173203
  31   C   :    0.000264444   -0.000199545   -0.000048472
  32   C   :    0.000556267   -0.000058472    0.000466673
  33   C   :    0.000194829   -0.000471082   -0.000537530
  34   N   :    0.000251813   -0.000439561   -0.000402017
  35   C   :    0.000472139   -0.000354309   -0.000075849
  36   C   :    0.000554228   -0.000173641    0.000262120
  37   H   :   -0.000039161   -0.000205215   -0.000381402
  38   H   :    0.000256259   -0.000002273    0.000206685
  39   H   :    0.000244448   -0.000195017   -0.000052168
  40   H   :    0.000193642    0.000106805    0.000359795
  41   H   :   -0.000029973   -0.000403105   -0.000115628
  42   H   :   -0.000131857   -0.000356982   -0.000077246

Difference to translation invariance:
           :   -0.0000000000   -0.0000000000    0.0000000000

Difference to rotation invariance:
           :   -0.0000000000    0.0000000000   -0.0000000000

Norm of the Dispersion gradient    ...    0.0036576137
RMS gradient                       ...    0.0003258461
MAX gradient                       ...    0.0008063706

------------------
CARTESIAN GRADIENT
------------------

   1   C   :    0.000088960   -0.000054544    0.000020582
   2   C   :    0.000218989    0.000063063    0.000060621
   3   C   :    0.000031033    0.000098723    0.000011275
   4   H   :   -0.000026709   -0.000007842   -0.000005944
   5   H   :   -0.000033463    0.000005092    0.000013379
   6   C   :   -0.000041148    0.000083636   -0.000005542
   7   H   :    0.000013812    0.000033142   -0.000035213
   8   H   :    0.000035194    0.000024058    0.000021899
   9   C   :   -0.000075449    0.000054996   -0.000009135
  10   N   :    0.000157165   -0.000099243    0.000053161
  11   H   :    0.000021260    0.000006021    0.000028514
  12   H   :    0.000016131    0.000009571   -0.000024368
  13   C   :    0.000099811   -0.000065450   -0.000060286
  14   C   :   -0.000084686   -0.000136083   -0.000063844
  15   H   :   -0.000035687   -0.000022845    0.000018205
  16   H   :    0.000008767    0.000001079   -0.000040983
  17   C   :   -0.000054784   -0.000171241   -0.000027535
  18   H   :   -0.000012816   -0.000007913    0.000068791
  19   H   :    0.000040059   -0.000023586    0.000013000
  20   C   :    0.000038243    0.000015968   -0.000040856
  21   H   :   -0.000015917   -0.000011498    0.000008670
  22   H   :   -0.000009713   -0.000005179    0.000002767
  23   C   :    0.000053186    0.000089274    0.000044400
  24   C   :   -0.000020806   -0.000024295    0.000032578
  25   C   :   -0.000019830   -0.000016439    0.000029617
  26   O   :   -0.000103037    0.000024795    0.000046543
  27   C   :    0.000158282    0.000023658   -0.000285295
  28   C   :    0.000039081    0.000074371   -0.000043701
  29   C   :   -0.000226838   -0.000098135    0.000024522
  30   O   :   -0.000080625   -0.000062524    0.000123068
  31   C   :    0.000122315    0.000015601   -0.000039804
  32   C   :   -0.000159574    0.000124301   -0.000011497
  33   C   :   -0.000170363   -0.000030425    0.000120333
  34   N   :    0.000050916    0.000008931    0.000024039
  35   C   :   -0.000078118    0.000064077   -0.000055389
  36   C   :    0.000014473   -0.000012851    0.000011319
  37   H   :    0.000017212    0.000069929    0.000003286
  38   H   :   -0.000020734    0.000006657    0.000013802
  39   H   :   -0.000003280   -0.000000903   -0.000009627
  40   H   :    0.000021601   -0.000082902   -0.000048918
  41   H   :   -0.000009338    0.000011267   -0.000002871
  42   H   :    0.000036422    0.000025687    0.000016438

Difference to translation invariance:
           :    0.0000000000    0.0000000000    0.0000000000

Difference to rotation invariance:
           :    0.0008347190    0.0003582816   -0.0000577076

Norm of the Cartesian gradient     ...    0.0007798850
RMS gradient                       ...    0.0000694777
MAX gradient                       ...    0.0002852948

-------
TIMINGS
-------

Total SCF gradient time     ....      167.420 sec

Densities                   ....       0.004 sec  (  0.0%)
One electron gradient       ....       1.770 sec  (  1.1%)
RI-J Coulomb gradient       ....      10.569 sec  (  6.3%)
COSX gradient               ....     127.587 sec  ( 76.2%)
XC gradient                 ....      15.498 sec  (  9.3%)
CPCM gradient               ....      11.968 sec  (  7.1%)
   A-Matrix (El+Nuc)        ....       0.256 sec  (  0.2%)
   Potential                ....      11.712 sec  (  7.0%)

Maximum memory used throughout the entire SCFGRAD-calculation: 149.9 MB
------------------------------------------------------------------------------
                         ORCA GEOMETRY RELAXATION STEP
------------------------------------------------------------------------------

Reading the OPT-File                    .... done
Getting information on internals        .... done
Copying old internal coords+grads       .... done
Making the new internal coordinates     .... (2022 redundants) done
Validating the new internal coordinates .... (2022 redundants) done
Calculating the B-matrix                .... done
Calculating the G,G- and P matrices     .... done
Transforming gradient to internals      .... done
Projecting the internal gradient        .... done
Number of atoms                         ....  42
Number of internal coordinates          .... 241
Current Energy                          .... -1032.800243733 Eh
Current gradient norm                   ....     0.000779885 Eh/bohr
Maximum allowed component of the step   ....  0.300
Current trust radius                    ....  0.200
Updating the Hessian (BFGS)             .... done
Forming the augmented Hessian           .... done
Diagonalizing the augmented Hessian     .... done
Last element of RFO vector              ....  0.999979560
Lowest eigenvalues of augmented Hessian:
 -0.000003291  0.009460190  0.014971795  0.015438811  0.016580365
Length of the computed step             ....  0.006393861
The final length of the internal step   ....  0.006393861
Converting the step to Cartesian space:
 Initial RMS(Int)=    0.0004118648
Transforming coordinates:
 Iter   0:  RMS(Cart)=    0.0012321913 RMS(Int)=    0.4046938077
done
Storing new coordinates                 .... done
The predicted energy change is          ....    -0.000001645
Previously predicted energy change      ....    -0.000008820
Actually observed energy change         ....    -0.000005677
Ratio of predicted to observed change   ....     0.643646584
New trust radius                        ....     0.200000000

                                .--------------------.
          ----------------------|Geometry convergence|-------------------------
          Item                value                   Tolerance       Converged
          ---------------------------------------------------------------------
          Energy change      -0.0000056767            0.0000050000      NO
          RMS gradient        0.0000689818            0.0001000000      YES
          MAX gradient        0.0002980470            0.0003000000      YES
          RMS step            0.0004118648            0.0020000000      YES
          MAX step            0.0016145601            0.0040000000      YES
          ........................................................
          Max(Bonds)      0.0003      Max(Angles)    0.02
          Max(Dihed)        0.09      Max(Improp)    0.00
          ---------------------------------------------------------------------

       Everything but the energy has converged. However, the energy
       appears to be close enough to convergence to make sure that the
       final evaluation at the new geometry represents the equilibrium energy.
       Convergence will therefore be signaled now


                    ***********************HURRAY********************
                    ***        THE OPTIMIZATION HAS CONVERGED     ***
                    *************************************************


    ---------------------------------------------------------------------------
                         Redundant Internal Coordinates

                          --- Optimized Parameters ---  
                            (Angstroem and degrees)

        Definition                    OldVal   dE/dq     Step     FinalVal
    ----------------------------------------------------------------------------
     1. B(C   1,C   0)                1.5171 -0.000148  0.0002    1.5173   
     2. B(C   2,C   1)                1.5219 -0.000157  0.0002    1.5221   
     3. B(H   3,C   1)                1.0933 -0.000007  0.0000    1.0933   
     4. B(H   4,C   1)                1.0908  0.000029 -0.0000    1.0908   
     5. B(C   5,C   2)                1.5080 -0.000214  0.0003    1.5083   
     6. B(H   6,C   2)                1.0911 -0.000000  0.0000    1.0911   
     7. B(H   7,C   2)                1.0955 -0.000000  0.0000    1.0955   
     8. B(C   8,C   5)                1.4307 -0.000198  0.0002    1.4309   
     9. B(N   9,C   8)                1.3663 -0.000298  0.0003    1.3665   
    10. B(N   9,C   0)                1.4593 -0.000194  0.0002    1.4596   
    11. B(H  10,C   0)                1.0984  0.000016 -0.0000    1.0983   
    12. B(H  11,C   0)                1.0904  0.000005 -0.0000    1.0904   
    13. B(C  12,N   9)                1.4585 -0.000222  0.0002    1.4587   
    14. B(C  13,C  12)                1.5169 -0.000166  0.0002    1.5171   
    15. B(H  14,C  12)                1.0984  0.000017 -0.0000    1.0984   
    16. B(H  15,C  12)                1.0899  0.000009 -0.0000    1.0899   
    17. B(C  16,C  13)                1.5226 -0.000108  0.0001    1.5228   
    18. B(H  17,C  13)                1.0907  0.000019 -0.0000    1.0907   
    19. B(H  18,C  13)                1.0930 -0.000008  0.0000    1.0930   
    20. B(C  19,C  16)                1.5071 -0.000238  0.0003    1.5074   
    21. B(C  19,C   8)                1.4171 -0.000199  0.0002    1.4173   
    22. B(H  20,C  16)                1.0953  0.000001 -0.0000    1.0953   
    23. B(H  21,C  16)                1.0902 -0.000008  0.0000    1.0902   
    24. B(C  22,C   5)                1.3709 -0.000159  0.0001    1.3710   
    25. B(C  23,C  19)                1.3818 -0.000274  0.0002    1.3820   
    26. B(C  24,C  23)                1.4009 -0.000110  0.0001    1.4010   
    27. B(C  24,C  22)                1.4053 -0.000201  0.0002    1.4055   
    28. B(O  25,C  23)                1.3708 -0.000123  0.0001    1.3709   
    29. B(C  26,O  25)                1.3804 -0.000068  0.0001    1.3805   
    30. B(C  27,C  24)                1.4101 -0.000230  0.0002    1.4103   
    31. B(C  28,C  26)                1.4481 -0.000094  0.0001    1.4482   
    32. B(C  28,C  27)                1.3682 -0.000275  0.0002    1.3684   
    33. B(O  29,C  26)                1.2187 -0.000071  0.0000    1.2187   
    34. B(C  30,C  28)                1.4722 -0.000262  0.0003    1.4724   
    35. B(C  31,C  30)                1.3968 -0.000167  0.0001    1.3970   
    36. B(C  32,C  30)                1.3994 -0.000175  0.0001    1.3995   
    37. B(N  33,C  32)                1.3333 -0.000023  0.0000    1.3333   
    38. B(C  34,N  33)                1.3367 -0.000045  0.0000    1.3367   
    39. B(C  35,C  34)                1.3889  0.000008 -0.0000    1.3888   
    40. B(C  35,C  31)                1.3857 -0.000046  0.0000    1.3857   
    41. B(H  36,C  32)                1.0848 -0.000023  0.0000    1.0848   
    42. B(H  37,C  35)                1.0820 -0.000004  0.0000    1.0820   
    43. B(H  38,C  34)                1.0845 -0.000001 -0.0000    1.0845   
    44. B(H  39,C  31)                1.0799 -0.000090  0.0001    1.0800   
    45. B(H  40,C  22)                1.0840 -0.000009  0.0000    1.0840   
    46. B(H  41,C  27)                1.0836 -0.000031  0.0000    1.0836   
    47. A(C   1,C   0,H  10)          110.05  0.000046   -0.01    110.04   
    48. A(C   1,C   0,N   9)          111.34 -0.000035    0.01    111.34   
    49. A(N   9,C   0,H  11)          107.25  0.000003    0.00    107.26   
    50. A(H  10,C   0,H  11)          107.34  0.000011   -0.01    107.33   
    51. A(C   1,C   0,H  11)          110.64 -0.000011    0.00    110.64   
    52. A(N   9,C   0,H  10)          110.10 -0.000014    0.00    110.11   
    53. A(C   2,C   1,H   3)          110.25  0.000011   -0.01    110.25   
    54. A(C   0,C   1,H   3)          109.38  0.000014   -0.01    109.38   
    55. A(C   2,C   1,H   4)          110.89  0.000009    0.00    110.89   
    56. A(H   3,C   1,H   4)          107.75 -0.000005    0.00    107.75   
    57. A(C   0,C   1,H   4)          109.32 -0.000015    0.01    109.33   
    58. A(C   0,C   1,C   2)          109.22 -0.000014    0.00    109.22   
    59. A(C   5,C   2,H   7)          109.29 -0.000060    0.01    109.30   
    60. A(C   1,C   2,C   5)          111.05 -0.000031    0.00    111.06   
    61. A(C   5,C   2,H   6)          109.58  0.000011    0.00    109.58   
    62. A(C   1,C   2,H   7)          108.84  0.000038   -0.01    108.83   
    63. A(C   1,C   2,H   6)          111.22 -0.000001    0.00    111.23   
    64. A(H   6,C   2,H   7)          106.74  0.000044   -0.01    106.73   
    65. A(C   2,C   5,C   8)          120.13  0.000020   -0.00    120.12   
    66. A(C   2,C   5,C  22)          120.41 -0.000035    0.00    120.41   
    67. A(C   8,C   5,C  22)          119.46  0.000015   -0.00    119.46   
    68. A(C   5,C   8,N   9)          120.15  0.000001    0.00    120.16   
    69. A(N   9,C   8,C  19)          120.09 -0.000002   -0.00    120.09   
    70. A(C   5,C   8,C  19)          119.74  0.000001   -0.00    119.74   
    71. A(C   0,N   9,C   8)          121.42  0.000037   -0.00    121.42   
    72. A(C   8,N   9,C  12)          120.51  0.000053   -0.01    120.49   
    73. A(C   0,N   9,C  12)          115.85 -0.000089    0.01    115.86   
    74. A(H  14,C  12,H  15)          107.43  0.000012   -0.01    107.43   
    75. A(C  13,C  12,H  15)          110.63 -0.000012    0.01    110.64   
    76. A(N   9,C  12,H  15)          107.39  0.000010    0.01    107.40   
    77. A(C  13,C  12,H  14)          110.25  0.000038   -0.01    110.25   
    78. A(N   9,C  12,H  14)          110.08 -0.000012    0.00    110.09   
    79. A(N   9,C  12,C  13)          110.95 -0.000035   -0.00    110.94   
    80. A(C  12,C  13,H  17)          109.52 -0.000031    0.01    109.53   
    81. A(C  12,C  13,C  16)          109.95 -0.000010    0.00    109.95   
    82. A(H  17,C  13,H  18)          107.70  0.000036   -0.01    107.69   
    83. A(C  16,C  13,H  18)          110.03 -0.000054    0.01    110.03   
    84. A(C  12,C  13,H  18)          109.04  0.000049   -0.01    109.03   
    85. A(C  16,C  13,H  17)          110.55  0.000012    0.00    110.56   
    86. A(H  20,C  16,H  21)          106.27  0.000013   -0.00    106.27   
    87. A(C  19,C  16,H  21)          109.74 -0.000001    0.00    109.74   
    88. A(C  13,C  16,H  21)          110.50  0.000001    0.00    110.50   
    89. A(C  19,C  16,H  20)          109.50  0.000013   -0.00    109.50   
    90. A(C  13,C  16,C  19)          111.07 -0.000047    0.01    111.08   
    91. A(C  13,C  16,H  20)          109.65  0.000024   -0.00    109.64   
    92. A(C  16,C  19,C  23)          120.48 -0.000041    0.00    120.48   
    93. A(C   8,C  19,C  23)          118.01  0.000017   -0.00    118.00   
    94. A(C   8,C  19,C  16)          121.51  0.000025    0.00    121.52   
    95. A(C   5,C  22,C  24)          122.04 -0.000038    0.01    122.05   
    96. A(C  24,C  22,H  40)          118.56  0.000029   -0.00    118.56   
    97. A(C   5,C  22,H  40)          119.39  0.000008   -0.00    119.39   
    98. A(C  24,C  23,O  25)          119.43  0.000106   -0.01    119.42   
    99. A(C  19,C  23,O  25)          117.11 -0.000096    0.01    117.12   
   100. A(C  19,C  23,C  24)          123.46 -0.000010    0.00    123.46   
   101. A(C  23,C  24,C  27)          118.28 -0.000003    0.00    118.28   
   102. A(C  22,C  24,C  27)          124.44 -0.000012    0.00    124.44   
   103. A(C  22,C  24,C  23)          117.27  0.000015   -0.00    117.27   
   104. A(C  23,O  25,C  26)          123.63 -0.000121    0.02    123.64   
   105. A(C  28,C  26,O  29)          126.84  0.000050   -0.01    126.83   
   106. A(O  25,C  26,O  29)          115.81  0.000015   -0.00    115.81   
   107. A(O  25,C  26,C  28)          117.36 -0.000064    0.01    117.36   
   108. A(C  24,C  27,C  28)          122.43 -0.000074    0.01    122.44   
   109. A(C  28,C  27,H  41)          119.52  0.000000    0.00    119.52   
   110. A(C  24,C  27,H  41)          118.04  0.000073   -0.01    118.03   
   111. A(C  27,C  28,C  30)          121.78 -0.000064    0.01    121.79   
   112. A(C  26,C  28,C  30)          119.35 -0.000093    0.01    119.36   
   113. A(C  26,C  28,C  27)          118.86  0.000156   -0.02    118.84   
   114. A(C  31,C  30,C  32)          116.90  0.000141   -0.02    116.88   
   115. A(C  28,C  30,C  32)          120.17 -0.000098    0.01    120.18   
   116. A(C  28,C  30,C  31)          122.92 -0.000044    0.00    122.93   
   117. A(C  35,C  31,H  39)          120.50  0.000000   -0.00    120.50   
   118. A(C  30,C  31,H  39)          120.19  0.000054   -0.01    120.18   
   119. A(C  30,C  31,C  35)          119.31 -0.000054    0.01    119.32   
   120. A(N  33,C  32,H  36)          116.15  0.000064   -0.01    116.14   
   121. A(C  30,C  32,H  36)          119.53 -0.000020    0.00    119.54   
   122. A(C  30,C  32,N  33)          124.31 -0.000044    0.01    124.32   
   123. A(C  32,N  33,C  34)          117.64 -0.000043    0.00    117.64   
   124. A(C  35,C  34,H  38)          120.55 -0.000013    0.00    120.56   
   125. A(N  33,C  34,H  38)          116.59 -0.000024    0.00    116.59   
   126. A(N  33,C  34,C  35)          122.86  0.000037   -0.01    122.85   
   127. A(C  34,C  35,H  37)          120.17  0.000044   -0.01    120.17   
   128. A(C  31,C  35,H  37)          120.85 -0.000007    0.00    120.85   
   129. A(C  31,C  35,C  34)          118.97 -0.000037    0.00    118.98   
   130. D(C   2,C   1,C   0,N   9)     56.92  0.000011   -0.01     56.91   
   131. D(C   2,C   1,C   0,H  10)    -65.45  0.000021   -0.01    -65.46   
   132. D(C   2,C   1,C   0,H  11)    176.09 -0.000015    0.00    176.09   
   133. D(H   3,C   1,C   0,N   9)    -63.82 -0.000003   -0.00    -63.82   
   134. D(H   3,C   1,C   0,H  11)     55.35 -0.000029    0.01     55.36   
   135. D(H   3,C   1,C   0,H  10)    173.81  0.000007   -0.00    173.80   
   136. D(C   5,C   2,C   1,C   0)    -52.11 -0.000009    0.00    -52.11   
   137. D(H   6,C   2,C   1,C   0)   -174.44 -0.000001   -0.01   -174.44   
   138. D(H   6,C   2,C   1,H   4)     65.02  0.000021   -0.02     65.01   
   139. D(H   6,C   2,C   1,H   3)    -54.23  0.000015   -0.02    -54.24   
   140. D(C   5,C   2,C   1,H   3)     68.10  0.000007   -0.01     68.09   
   141. D(C   5,C   2,C   1,H   4)   -172.65  0.000013   -0.01   -172.66   
   142. D(C   8,C   5,C   2,C   1)     26.30  0.000008   -0.00     26.30   
   143. D(C   8,C   5,C   2,H   6)    149.57 -0.000006    0.01    149.58   
   144. D(C  22,C   5,C   2,C   1)   -154.54 -0.000001    0.02   -154.53   
   145. D(C   8,C   5,C   2,H   7)    -93.78  0.000019   -0.00    -93.79   
   146. D(C  22,C   5,C   2,H   6)    -31.27 -0.000015    0.02    -31.25   
   147. D(C  19,C   8,C   5,C  22)     -1.24 -0.000004    0.00     -1.24   
   148. D(C  19,C   8,C   5,C   2)    177.92 -0.000012    0.02    177.94   
   149. D(N   9,C   8,C   5,C  22)    177.91  0.000005   -0.01    177.90   
   150. D(N   9,C   8,C   5,C   2)     -2.93 -0.000004    0.01     -2.92   
   151. D(C  12,N   9,C   8,C  19)    -10.92  0.000014   -0.04    -10.96   
   152. D(C  12,N   9,C   8,C   5)    169.93  0.000006   -0.03    169.90   
   153. D(C   0,N   9,C   8,C  19)   -173.30  0.000023   -0.03   -173.33   
   154. D(C   0,N   9,C   8,C   5)      7.55  0.000015   -0.02      7.53   
   155. D(C  12,N   9,C   0,H  10)    -76.11 -0.000010    0.03    -76.09   
   156. D(C  12,N   9,C   0,C   1)    161.54 -0.000035    0.03    161.58   
   157. D(C   8,N   9,C   0,H  11)   -156.47  0.000011    0.01   -156.46   
   158. D(C   8,N   9,C   0,H  10)     87.04  0.000004    0.02     87.06   
   159. D(C   8,N   9,C   0,C   1)    -35.30 -0.000021    0.02    -35.28   
   160. D(C  13,C  12,N   9,C   0)   -157.02 -0.000002    0.05   -156.97   
   161. D(H  15,C  12,N   9,C   0)    -36.00 -0.000032    0.06    -35.94   
   162. D(H  14,C  12,N   9,C   8)    -82.65 -0.000029    0.07    -82.59   
   163. D(H  14,C  12,N   9,C   0)     80.66 -0.000018    0.06     80.72   
   164. D(C  13,C  12,N   9,C   8)     39.67 -0.000014    0.06     39.72   
   165. D(H  17,C  13,C  12,H  15)     61.54  0.000035   -0.04     61.50   
   166. D(H  17,C  13,C  12,H  14)    -57.15  0.000003   -0.03    -57.18   
   167. D(H  17,C  13,C  12,N   9)   -179.37  0.000016   -0.03   -179.40   
   168. D(C  16,C  13,C  12,H  15)   -176.80  0.000023   -0.03   -176.82   
   169. D(C  16,C  13,C  12,H  14)     64.51 -0.000009   -0.02     64.49   
   170. D(C  16,C  13,C  12,N   9)    -57.71  0.000004   -0.02    -57.73   
   171. D(H  20,C  16,C  13,H  17)     47.90 -0.000014   -0.02     47.87   
   172. D(H  20,C  16,C  13,C  12)    -73.15  0.000024   -0.04    -73.19   
   173. D(C  19,C  16,C  13,H  18)    -72.11  0.000005   -0.03    -72.14   
   174. D(C  19,C  16,C  13,H  17)    169.05 -0.000012   -0.02    169.03   
   175. D(H  20,C  16,C  13,H  18)    166.74  0.000004   -0.03    166.70   
   176. D(C  19,C  16,C  13,C  12)     48.01  0.000026   -0.04     47.97   
   177. D(C  23,C  19,C  16,H  20)    -79.77 -0.000009    0.03    -79.74   
   178. D(C   8,C  19,C  16,H  21)   -143.41  0.000002    0.05   -143.36   
   179. D(C   8,C  19,C  16,H  20)    100.30 -0.000020    0.06    100.36   
   180. D(C   8,C  19,C  16,C  13)    -20.94 -0.000029    0.06    -20.88   
   181. D(C  23,C  19,C   8,N   9)   -178.73 -0.000005    0.00   -178.73   
   182. D(C  23,C  19,C   8,C   5)      0.42  0.000003   -0.00      0.42   
   183. D(C  23,C  19,C  16,C  13)    158.99 -0.000017    0.03    159.02   
   184. D(C  16,C  19,C   8,N   9)      1.20  0.000006   -0.02      1.18   
   185. D(C  16,C  19,C   8,C   5)   -179.64  0.000015   -0.03   -179.67   
   186. D(H  40,C  22,C   5,C   8)   -179.41 -0.000002    0.00   -179.41   
   187. D(H  40,C  22,C   5,C   2)      1.43  0.000006   -0.02      1.42   
   188. D(C  24,C  22,C   5,C   8)      1.12 -0.000002    0.01      1.13   
   189. D(C  24,C  22,C   5,C   2)   -178.04  0.000006   -0.01   -178.05   
   190. D(O  25,C  23,C  19,C   8)   -179.27 -0.000004   -0.00   -179.27   
   191. D(C  24,C  23,C  19,C  16)   -179.38 -0.000010    0.02   -179.36   
   192. D(C  24,C  23,C  19,C   8)      0.55  0.000001   -0.00      0.55   
   193. D(O  25,C  23,C  19,C  16)      0.80 -0.000015    0.02      0.83   
   194. D(C  27,C  24,C  23,O  25)     -0.04  0.000005    0.01     -0.03   
   195. D(C  27,C  24,C  23,C  19)   -179.85  0.000000    0.01   -179.84   
   196. D(C  22,C  24,C  23,O  25)    179.12 -0.000001    0.01    179.13   
   197. D(C  22,C  24,C  23,C  19)     -0.69 -0.000006    0.01     -0.68   
   198. D(C  27,C  24,C  22,H  40)     -0.55 -0.000000   -0.01     -0.55   
   199. D(C  27,C  24,C  22,C   5)    178.92 -0.000000   -0.01    178.91   
   200. D(C  23,C  24,C  22,H  40)   -179.65  0.000006   -0.01   -179.66   
   201. D(C  23,C  24,C  22,C   5)     -0.18  0.000006   -0.01     -0.19   
   202. D(C  26,O  25,C  23,C  24)      0.51  0.000012   -0.00      0.50   
   203. D(C  26,O  25,C  23,C  19)   -179.67  0.000017   -0.00   -179.67   
   204. D(O  29,C  26,O  25,C  23)    178.72  0.000089   -0.07    178.65   
   205. D(C  28,C  26,O  25,C  23)     -0.81 -0.000039    0.01     -0.80   
   206. D(H  41,C  27,C  24,C  23)    178.78 -0.000023    0.03    178.80   
   207. D(H  41,C  27,C  24,C  22)     -0.32 -0.000016    0.03     -0.29   
   208. D(C  28,C  27,C  24,C  23)     -0.08  0.000008   -0.02     -0.09   
   209. D(C  28,C  27,C  24,C  22)   -179.17  0.000014   -0.02   -179.19   
   210. D(C  30,C  28,C  27,H  41)      1.90 -0.000013    0.00      1.90   
   211. D(C  30,C  28,C  27,C  24)   -179.26 -0.000043    0.05   -179.21   
   212. D(C  26,C  28,C  27,H  41)   -179.08 -0.000007   -0.02   -179.10   
   213. D(C  26,C  28,C  27,C  24)     -0.24 -0.000037    0.03     -0.22   
   214. D(C  30,C  28,C  26,O  29)      0.23 -0.000085    0.04      0.27   
   215. D(C  30,C  28,C  26,O  25)    179.71  0.000059   -0.04    179.66   
   216. D(C  27,C  28,C  26,O  29)   -178.81 -0.000092    0.07   -178.75   
   217. D(C  27,C  28,C  26,O  25)      0.66  0.000052   -0.02      0.64   
   218. D(C  32,C  30,C  28,C  27)     38.59 -0.000017    0.07     38.66   
   219. D(C  32,C  30,C  28,C  26)   -140.42 -0.000026    0.09   -140.33   
   220. D(C  31,C  30,C  28,C  27)   -140.19 -0.000001    0.01   -140.18   
   221. D(C  31,C  30,C  28,C  26)     40.79 -0.000010    0.04     40.83   
   222. D(H  39,C  31,C  30,C  32)    179.85  0.000025   -0.06    179.79   
   223. D(H  39,C  31,C  30,C  28)     -1.33  0.000006   -0.00     -1.33   
   224. D(C  35,C  31,C  30,C  32)     -0.78  0.000018   -0.04     -0.82   
   225. D(C  35,C  31,C  30,C  28)    178.05 -0.000001    0.01    178.06   
   226. D(H  36,C  32,C  30,C  31)   -178.10  0.000021   -0.04   -178.14   
   227. D(H  36,C  32,C  30,C  28)      3.04  0.000039   -0.09      2.95   
   228. D(N  33,C  32,C  30,C  31)      1.03 -0.000034    0.08      1.10   
   229. D(N  33,C  32,C  30,C  28)   -177.83 -0.000016    0.02   -177.81   
   230. D(C  34,N  33,C  32,H  36)    178.61 -0.000031    0.06    178.67   
   231. D(C  34,N  33,C  32,C  30)     -0.54  0.000023   -0.05     -0.59   
   232. D(H  38,C  34,N  33,C  32)   -179.98 -0.000009    0.02   -179.96   
   233. D(C  35,C  34,N  33,C  32)     -0.19  0.000006   -0.01     -0.20   
   234. D(H  37,C  35,C  34,H  38)     -0.22 -0.000002    0.01     -0.21   
   235. D(H  37,C  35,C  34,N  33)    180.00 -0.000017    0.04    180.04   
   236. D(C  31,C  35,C  34,H  38)   -179.83 -0.000005    0.01   -179.82   
   237. D(C  31,C  35,C  34,N  33)      0.39 -0.000020    0.04      0.43   
   238. D(H  37,C  35,C  31,H  39)     -0.11 -0.000003    0.01     -0.10   
   239. D(H  37,C  35,C  31,C  30)   -179.48  0.000003   -0.01   -179.48   
   240. D(C  34,C  35,C  31,H  39)    179.50 -0.000001    0.00    179.50   
   241. D(C  34,C  35,C  31,C  30)      0.13  0.000006   -0.01      0.12   
    ----------------------------------------------------------------------------

Geometry step timings:
Preparation and reading OPT file:      0.001 s ( 4.049 %)
Internal coordinates            :      0.000 s ( 0.116 %)
B/P matrices and projection     :      0.004 s (18.952 %)
Hessian update/contruction      :      0.009 s (45.061 %)
Making the step                 :      0.002 s (11.769 %)
Converting the step to Cartesian:      0.000 s ( 1.343 %)
Storing new data                :      0.001 s ( 4.471 %)
Checking convergence            :      0.000 s ( 0.060 %)
Final printing                  :      0.003 s (14.174 %)
Total time                      :      0.020 s
                 *******************************************************
                 *** FINAL ENERGY EVALUATION AT THE STATIONARY POINT ***
                 ***               (AFTER    4 CYCLES)               ***
                 *******************************************************
---------------------------------
CARTESIAN COORDINATES (ANGSTROEM)
---------------------------------
  C     -6.548895   -1.507554   -0.076384
  C     -6.547343   -2.650115   -1.074768
  C     -5.550122   -3.707941   -0.623993
  H     -6.273827   -2.268637   -2.062158
  H     -7.552202   -3.068329   -1.146497
  C     -4.198258   -3.097138   -0.351508
  H     -5.450448   -4.499515   -1.368287
  H     -5.924929   -4.180348    0.290535
  C     -4.094954   -1.720635    0.025237
  N     -5.214130   -0.938549    0.081880
  H     -6.928326   -1.855841    0.893716
  H     -7.205198   -0.704280   -0.412530
  C     -5.156506    0.394663    0.671026
  C     -3.870884    1.102373    0.286507
  H     -5.241433    0.328074    1.764065
  H     -6.022755    0.948470    0.309448
  C     -2.670695    0.276678    0.729978
  H     -3.846943    2.090788    0.746983
  H     -3.850475    1.240372   -0.797559
  C     -2.824819   -1.166278    0.322016
  H     -2.562481    0.339384    1.818106
  H     -1.751120    0.682474    0.307775
  C     -3.061387   -3.857575   -0.445627
  C     -1.718929   -1.989402    0.225280
  C     -1.788474   -3.334491   -0.160225
  O     -0.501326   -1.438687    0.531295
  C      0.689202   -2.135129    0.473947
  C     -0.589992   -4.075581   -0.219201
  C      0.627235   -3.528264    0.083149
  O      1.690393   -1.498155    0.751725
  C      1.871682   -4.310938    0.000269
  C      2.900349   -4.203280    0.939272
  C      2.056922   -5.230047   -1.038746
  N      3.130156   -6.010283   -1.169705
  C      4.095604   -5.895962   -0.252327
  C      4.022817   -5.005640    0.811124
  H      1.298775   -5.326827   -1.808628
  H      4.830482   -4.948656    1.528799
  H      4.960845   -6.538032   -0.375576
  H      2.814522   -3.508047    1.761318
  H     -3.139984   -4.897697   -0.740545
  H     -0.650827   -5.120773   -0.498728

----------------------------
CARTESIAN COORDINATES (A.U.)
----------------------------
  NO LB      ZA    FRAG     MASS         X           Y           Z
   0 C     6.0000    0    12.011  -12.375618   -2.848864   -0.144345
   1 C     6.0000    0    12.011  -12.372686   -5.007991   -2.031017
   2 C     6.0000    0    12.011  -10.488211   -7.006992   -1.179176
   3 H     1.0000    0     1.008  -11.855815   -4.287103   -3.896914
   4 H     1.0000    0     1.008  -14.271593   -5.798302   -2.166564
   5 C     6.0000    0    12.011   -7.933558   -5.852743   -0.664253
   6 H     1.0000    0     1.008  -10.299854   -8.502852   -2.585688
   7 H     1.0000    0     1.008  -11.196493   -7.899713    0.549032
   8 C     6.0000    0    12.011   -7.738342   -3.251529    0.047691
   9 N     7.0000    0    14.007   -9.853279   -1.773601    0.154731
  10 H     1.0000    0     1.008  -13.092638   -3.507031    1.688879
  11 H     1.0000    0     1.008  -13.615852   -1.330897   -0.779569
  12 C     6.0000    0    12.011   -9.744384    0.745805    1.268055
  13 C     6.0000    0    12.011   -7.314911    2.083182    0.541420
  14 H     1.0000    0     1.008   -9.904873    0.619970    3.333599
  15 H     1.0000    0     1.008  -11.381358    1.792349    0.584772
  16 C     6.0000    0    12.011   -5.046882    0.522846    1.379458
  17 H     1.0000    0     1.008   -7.269669    3.951016    1.411593
  18 H     1.0000    0     1.008   -7.276343    2.343964   -1.507168
  19 C     6.0000    0    12.011   -5.338135   -2.203945    0.608522
  20 H     1.0000    0     1.008   -4.842387    0.641342    3.435722
  21 H     1.0000    0     1.008   -3.309136    1.289690    0.581611
  22 C     6.0000    0    12.011   -5.785183   -7.289760   -0.842114
  23 C     6.0000    0    12.011   -3.248305   -3.759425    0.425717
  24 C     6.0000    0    12.011   -3.379726   -6.301274   -0.302781
  25 O     8.0000    0    15.999   -0.947369   -2.718725    1.004003
  26 C     6.0000    0    12.011    1.302402   -4.034809    0.895630
  27 C     6.0000    0    12.011   -1.114924   -7.701733   -0.414229
  28 C     6.0000    0    12.011    1.185303   -6.667452    0.157128
  29 O     8.0000    0    15.999    3.194380   -2.831102    1.420555
  30 C     6.0000    0    12.011    3.536965   -8.146492    0.000509
  31 C     6.0000    0    12.011    5.480865   -7.943048    1.774968
  32 C     6.0000    0    12.011    3.887019   -9.883357   -1.962945
  33 N     7.0000    0    14.007    5.915138  -11.357790   -2.210422
  34 C     6.0000    0    12.011    7.739571  -11.141754   -0.476828
  35 C     6.0000    0    12.011    7.602022   -9.459290    1.532802
  36 H     1.0000    0     1.008    2.454329  -10.066244   -3.417812
  37 H     1.0000    0     1.008    9.128288   -9.351605    2.889012
  38 H     1.0000    0     1.008    9.374638  -12.355089   -0.709735
  39 H     1.0000    0     1.008    5.318675   -6.629247    3.328409
  40 H     1.0000    0     1.008   -5.933710   -9.255305   -1.399428
  41 H     1.0000    0     1.008   -1.229884   -9.676858   -0.942459

--------------------------------
INTERNAL COORDINATES (ANGSTROEM)
--------------------------------
 C      0   0   0     0.000000000000     0.00000000     0.00000000
 C      1   0   0     1.517305854068     0.00000000     0.00000000
 C      2   1   0     1.522052293562   109.21683935     0.00000000
 H      2   1   3     1.093286909430   109.37624644   239.26420294
 H      2   1   3     1.090774233770   109.33210615   121.49823548
 C      3   2   1     1.508265200353   111.05679937   307.88718037
 H      3   2   1     1.091099820282   111.22526477   185.55660768
 H      3   2   1     1.095450233608   108.83200141    68.24962278
 C      6   3   2     1.430862975574   120.12336369    26.30067152
 N      9   6   3     1.366536714544   120.15591499   357.08305352
 H      1   2   3     1.098347360638   110.04375363   294.54056759
 H      1   2   3     1.090401961816   110.64040647   176.09346192
 C     10   9   6     1.458721390607   120.49468162   169.89713260
 C     13  10   9     1.517079979035   110.94470897    39.72304784
 H     13  10   9     1.098353663632   110.08777082   277.41315721
 H     13  10   9     1.089875396818   107.39929737   160.74664449
 C     14  13  10     1.522790473994   109.94674837   302.27368804
 H     14  13  10     1.090676680553   109.53295110   180.59847201
 H     14  13  10     1.093005113205   109.03275483    62.98530776
 C      9   6   3     1.417262222473   119.74393663   177.93721160
 H     17  14  13     1.095291853454   109.64212209   286.81084437
 H     17  14  13     1.090203854220   110.49885738   170.00706841
 C      6   3   2     1.370984575650   120.41257937   205.47286289
 C     20   9   6     1.381986083446   118.00300866     0.42012761
 C     24  20   9     1.400968658155   123.46249212     0.54945430
 O     24  20   9     1.370944726689   117.11827429   180.73253422
 C     26  24  20     1.380462197550   123.64309328   180.32933273
 C     25  24  20     1.410337517423   118.28347257   180.15630862
 C     28  25  24     1.368435168430   122.44429116   359.90525548
 O     27  26  24     1.218720875907   115.80638696   178.65351780
 C     29  28  25     1.472444989561   121.78517392   180.78714694
 C     31  29  28     1.396951488870   122.92527149   219.81691775
 C     31  29  28     1.399509964618   120.18147340    38.66026326
 N     33  31  29     1.333323344984   124.31702188   182.19263971
 C     34  33  31     1.336690771626   117.64029498   359.40860389
 C     32  31  29     1.385690947545   119.32088224   178.05691207
 H     33  31  29     1.084837411557   119.53529565     2.94988999
 H     36  32  31     1.081955805299   120.85357877   180.51633868
 H     35  34  33     1.084474408268   116.59123852   180.03694642
 H     32  31  29     1.080034757226   120.17931768   358.67064959
 H     23   6   3     1.083977669668   119.39155938     1.41705611
 H     28  25  24     1.083633453881   118.02844499   178.80472036

---------------------------
INTERNAL COORDINATES (A.U.)
---------------------------
 C      0   0   0     0.000000000000     0.00000000     0.00000000
 C      1   0   0     2.867292525584     0.00000000     0.00000000
 C      2   1   0     2.876261996339   109.21683935     0.00000000
 H      2   1   3     2.066012844624   109.37624644   239.26420294
 H      2   1   3     2.061264575763   109.33210615   121.49823548
 C      3   2   1     2.850208165991   111.05679937   307.88718037
 H      3   2   1     2.061879845103   111.22526477   185.55660768
 H      3   2   1     2.070100934860   108.83200141    68.24962278
 C      6   3   2     2.703939159003   120.12336369    26.30067152
 N      9   6   3     2.582380142437   120.15591499   357.08305352
 H      1   2   3     2.075575711522   110.04375363   294.54056759
 H      1   2   3     2.060561083724   110.64040647   176.09346192
 C     10   9   6     2.756583933940   120.49468162   169.89713260
 C     13  10   9     2.866865683632   110.94470897    39.72304784
 H     13  10   9     2.075587622454   110.08777082   277.41315721
 H     13  10   9     2.059566020085   107.39929737   160.74664449
 C     14  13  10     2.877656955193   109.94674837   302.27368804
 H     14  13  10     2.061080226900   109.53295110   180.59847201
 H     14  13  10     2.065480326932   109.03275483    62.98530776
 C      9   6   3     2.678237460426   119.74393663   177.93721160
 H     17  14  13     2.069801639743   109.64212209   286.81084437
 H     17  14  13     2.060186714621   110.49885738   170.00706841
 C      6   3   2     2.590785381809   120.41257937   205.47286289
 C     20   9   6     2.611575218603   118.00300866     0.42012761
 C     24  20   9     2.647447086121   123.46249212     0.54945430
 O     24  20   9     2.590710078186   117.11827429   180.73253422
 C     26  24  20     2.608695491600   123.64309328   180.32933273
 C     25  24  20     2.665151664324   118.28347257   180.15630862
 C     28  25  24     2.585967700359   122.44429116   359.90525548
 O     27  26  24     2.303048689156   115.80638696   178.65351780
 C     29  28  25     2.782517777536   121.78517392   180.78714694
 C     31  29  28     2.639855736338   122.92527149   219.81691775
 C     31  29  28     2.644690554821   120.18147340    38.66026326
 N     33  31  29     2.519615969984   124.31702188   182.19263971
 C     34  33  31     2.525979484112   117.64029498   359.40860389
 C     32  31  29     2.618576397113   119.32088224   178.05691207
 H     33  31  29     2.050045607675   119.53529565     2.94988999
 H     36  32  31     2.044600161021   120.85357877   180.51633868
 H     35  34  33     2.049359630873   116.59123852   180.03694642
 H     32  31  29     2.040969906274   120.17931768   358.67064959
 H     23   6   3     2.048420930959   119.39155938     1.41705611
 H     28  25  24     2.047770457389   118.02844499   178.80472036

---------------------
BASIS SET INFORMATION
---------------------
There are 4 groups of distinct atoms

 Group   1 Type C   : 11s6p2d contracted to 5s3p2d pattern {62111/411/11}
 Group   2 Type H   : 5s1p contracted to 3s1p pattern {311/1}
 Group   3 Type N   : 11s6p2d contracted to 5s3p2d pattern {62111/411/11}
 Group   4 Type O   : 11s6p2d contracted to 5s3p2d pattern {62111/411/11}

Atom   0C    basis set group =>   1
Atom   1C    basis set group =>   1
Atom   2C    basis set group =>   1
Atom   3H    basis set group =>   2
Atom   4H    basis set group =>   2
Atom   5C    basis set group =>   1
Atom   6H    basis set group =>   2
Atom   7H    basis set group =>   2
Atom   8C    basis set group =>   1
Atom   9N    basis set group =>   3
Atom  10H    basis set group =>   2
Atom  11H    basis set group =>   2
Atom  12C    basis set group =>   1
Atom  13C    basis set group =>   1
Atom  14H    basis set group =>   2
Atom  15H    basis set group =>   2
Atom  16C    basis set group =>   1
Atom  17H    basis set group =>   2
Atom  18H    basis set group =>   2
Atom  19C    basis set group =>   1
Atom  20H    basis set group =>   2
Atom  21H    basis set group =>   2
Atom  22C    basis set group =>   1
Atom  23C    basis set group =>   1
Atom  24C    basis set group =>   1
Atom  25O    basis set group =>   4
Atom  26C    basis set group =>   1
Atom  27C    basis set group =>   1
Atom  28C    basis set group =>   1
Atom  29O    basis set group =>   4
Atom  30C    basis set group =>   1
Atom  31C    basis set group =>   1
Atom  32C    basis set group =>   1
Atom  33N    basis set group =>   3
Atom  34C    basis set group =>   1
Atom  35C    basis set group =>   1
Atom  36H    basis set group =>   2
Atom  37H    basis set group =>   2
Atom  38H    basis set group =>   2
Atom  39H    basis set group =>   2
Atom  40H    basis set group =>   2
Atom  41H    basis set group =>   2
---------------------------------
AUXILIARY/J BASIS SET INFORMATION
---------------------------------
There are 4 groups of distinct atoms

 Group   1 Type C   : 12s5p4d2f1g contracted to 6s4p3d1f1g pattern {711111/2111/211/2/1}
 Group   2 Type H   : 5s2p1d contracted to 3s1p1d pattern {311/2/1}
 Group   3 Type N   : 12s5p4d2f1g contracted to 6s4p3d1f1g pattern {711111/2111/211/2/1}
 Group   4 Type O   : 12s5p4d2f1g contracted to 6s4p3d1f1g pattern {711111/2111/211/2/1}

Atom   0C    basis set group =>   1
Atom   1C    basis set group =>   1
Atom   2C    basis set group =>   1
Atom   3H    basis set group =>   2
Atom   4H    basis set group =>   2
Atom   5C    basis set group =>   1
Atom   6H    basis set group =>   2
Atom   7H    basis set group =>   2
Atom   8C    basis set group =>   1
Atom   9N    basis set group =>   3
Atom  10H    basis set group =>   2
Atom  11H    basis set group =>   2
Atom  12C    basis set group =>   1
Atom  13C    basis set group =>   1
Atom  14H    basis set group =>   2
Atom  15H    basis set group =>   2
Atom  16C    basis set group =>   1
Atom  17H    basis set group =>   2
Atom  18H    basis set group =>   2
Atom  19C    basis set group =>   1
Atom  20H    basis set group =>   2
Atom  21H    basis set group =>   2
Atom  22C    basis set group =>   1
Atom  23C    basis set group =>   1
Atom  24C    basis set group =>   1
Atom  25O    basis set group =>   4
Atom  26C    basis set group =>   1
Atom  27C    basis set group =>   1
Atom  28C    basis set group =>   1
Atom  29O    basis set group =>   4
Atom  30C    basis set group =>   1
Atom  31C    basis set group =>   1
Atom  32C    basis set group =>   1
Atom  33N    basis set group =>   3
Atom  34C    basis set group =>   1
Atom  35C    basis set group =>   1
Atom  36H    basis set group =>   2
Atom  37H    basis set group =>   2
Atom  38H    basis set group =>   2
Atom  39H    basis set group =>   2
Atom  40H    basis set group =>   2
Atom  41H    basis set group =>   2
---------------------------------
AUXILIARY/C BASIS SET INFORMATION
---------------------------------
There are 4 groups of distinct atoms

 Group   1 Type C   : 8s6p5d3f1g contracted to 8s6p4d3f1g pattern {11111111/111111/2111/111/1}
 Group   2 Type H   : 4s3p2d contracted to 4s2p1d pattern {1111/21/2}
 Group   3 Type N   : 8s6p5d3f1g contracted to 8s6p4d3f1g pattern {11111111/111111/2111/111/1}
 Group   4 Type O   : 8s6p5d3f1g contracted to 8s6p4d3f1g pattern {11111111/111111/2111/111/1}

Atom   0C    basis set group =>   1
Atom   1C    basis set group =>   1
Atom   2C    basis set group =>   1
Atom   3H    basis set group =>   2
Atom   4H    basis set group =>   2
Atom   5C    basis set group =>   1
Atom   6H    basis set group =>   2
Atom   7H    basis set group =>   2
Atom   8C    basis set group =>   1
Atom   9N    basis set group =>   3
Atom  10H    basis set group =>   2
Atom  11H    basis set group =>   2
Atom  12C    basis set group =>   1
Atom  13C    basis set group =>   1
Atom  14H    basis set group =>   2
Atom  15H    basis set group =>   2
Atom  16C    basis set group =>   1
Atom  17H    basis set group =>   2
Atom  18H    basis set group =>   2
Atom  19C    basis set group =>   1
Atom  20H    basis set group =>   2
Atom  21H    basis set group =>   2
Atom  22C    basis set group =>   1
Atom  23C    basis set group =>   1
Atom  24C    basis set group =>   1
Atom  25O    basis set group =>   4
Atom  26C    basis set group =>   1
Atom  27C    basis set group =>   1
Atom  28C    basis set group =>   1
Atom  29O    basis set group =>   4
Atom  30C    basis set group =>   1
Atom  31C    basis set group =>   1
Atom  32C    basis set group =>   1
Atom  33N    basis set group =>   3
Atom  34C    basis set group =>   1
Atom  35C    basis set group =>   1
Atom  36H    basis set group =>   2
Atom  37H    basis set group =>   2
Atom  38H    basis set group =>   2
Atom  39H    basis set group =>   2
Atom  40H    basis set group =>   2
Atom  41H    basis set group =>   2
------------------------------------------------------------------------------
                             ORCA STARTUP CALCULATIONS
                           -- RI-GTO INTEGRALS CHOSEN --
------------------------------------------------------------------------------
------------------------------------------------------------------------------
                   ___                                                        
                  /   \      - P O W E R E D   B Y -                         
                 /     \                                                     
                 |  |  |   _    _      __       _____    __    __             
                 |  |  |  | |  | |    /  \     |  _  \  |  |  /  |          
                  \  \/   | |  | |   /    \    | | | |  |  | /  /          
                 / \  \   | |__| |  /  /\  \   | |_| |  |  |/  /          
                |  |  |   |  __  | /  /__\  \  |    /   |      \           
                |  |  |   | |  | | |   __   |  |    \   |  |\   \          
                \     /   | |  | | |  |  |  |  | |\  \  |  | \   \       
                 \___/    |_|  |_| |__|  |__|  |_| \__\ |__|  \__/        
                                                                              
                      - O R C A' S   B I G   F R I E N D -                    
                                      &                                       
                       - I N T E G R A L  F E E D E R -                       
                                                                              
 v1 FN, 2020, v2 2021, v3 2022-2024                                           
------------------------------------------------------------------------------


----------------------
SHARK INTEGRAL PACKAGE
----------------------

Number of atoms                             ...     42
Number of basis functions                   ...    684
Number of shells                            ...    312
Maximum angular momentum                    ...      2
Integral batch strategy                     ... SHARK/LIBINT Hybrid
RI-J (if used) integral strategy            ... SPLIT-RIJ (Revised 2003 algorithm where possible)
Printlevel                                  ...      1
Contraction scheme used                     ... SEGMENTED contraction
Prescreening option                         ... SCHWARTZ
   Thresh                                   ... 2.500e-11
   Tcut                                     ... 2.500e-12
   Tpresel                                  ... 2.500e-12 
Coulomb Range Separation                    ... NOT USED
Exchange Range Separation                   ... NOT USED
Multipole approximations                    ... NOT USED
Finite Nucleus Model                        ... NOT USED
CABS basis                                  ... NOT available
Auxiliary Coulomb fitting basis             ... AVAILABLE
   # of basis functions in Aux-J            ...   1374
   # of shells in Aux-J                     ...    450
   Maximum angular momentum in Aux-J        ...      4
Auxiliary J/K fitting basis                 ... NOT available
Auxiliary Correlation fitting basis         ... AVAILABLE
   # of basis functions in Aux-C            ...   2094
   # of shells in Aux-C                     ...    654
   Maximum angular momentum in Aux-C        ...      4
Auxiliary 'external' fitting basis          ... NOT available

Checking pre-screening integrals            ... done (  0.0 sec) Dimension = 312
Check shell pair data                       ... done (  0.0 sec)
Shell pair information
Shell pair cut-off parameter TPreSel        ...   2.5e-12
Total number of shell pairs                 ...     48828
Shell pairs after pre-screening             ...     32457
Total number of primitive shell pairs       ...    159912
Primitive shell pairs kept                  ...     69853
          la=0 lb=0:   9559 shell pairs
          la=1 lb=0:  10774 shell pairs
          la=1 lb=1:   3030 shell pairs
          la=2 lb=0:   5326 shell pairs
          la=2 lb=1:   3012 shell pairs
          la=2 lb=2:    756 shell pairs

Calculating one electron integrals          ... done (  0.1 sec)
Calculating RI/J V-Matrix + Cholesky decomp.... done (  0.3 sec)
Calculating RI/C V-Matrix + Cholesky decomp.... done (  0.8 sec)
Calculating Nuclear repulsion               ... done (  0.0 sec) ENN=   1945.111688730249 Eh

Diagonalization of the overlap matrix:
Smallest eigenvalue                        ... 3.370e-06
Time for diagonalization                   ...    0.037 sec
Threshold for overlap eigenvalues          ... 1.000e-07
Number of eigenvalues below threshold      ... 0
Time for construction of square roots      ...    0.055 sec
Total time needed                          ...    0.101 sec

-------------------
DFT GRID GENERATION
-------------------

General Integration Accuracy     IntAcc      ... 4.388
Radial Grid Type                 RadialGrid  ... OptM3 with GC (2021)
Angular Grid (max. ang.)         AngularGrid ... 4 (Lebedev-302)
Angular grid pruning method      GridPruning ... 4 (adaptive)
Weight generation scheme         WeightScheme... mBecke (2022)
Basis function cutoff            BFCut       ... 1.0000e-11
Integration weight cutoff        WCut        ... 1.0000e-14
Partially contracted basis set               ... off
Rotationally invariant grid construction     ... off
Angular grids for H and He will be reduced by one unit

Total number of grid points                  ...   200208
Total number of batches                      ...     3147
Average number of points per batch           ...       63
Average number of grid points per atom       ...     4767

--------------------
COSX GRID GENERATION
--------------------

GRIDX 1
-------
General Integration Accuracy     IntAcc      ... 3.816
Radial Grid Type                 RadialGrid  ... OptM3 with GC (2021)
Angular Grid (max. ang.)         AngularGrid ... 1 (Lebedev-50)
Angular grid pruning method      GridPruning ... 4 (adaptive)
Weight generation scheme         WeightScheme... mBecke (2022)
Basis function cutoff            BFCut       ... 1.0000e-11
Integration weight cutoff        WCut        ... 1.0000e-14
Partially contracted basis set               ... on
Rotationally invariant grid construction     ... off
Angular grids for H and He will be reduced by one unit

Total number of grid points                  ...    25399
Total number of batches                      ...      225
Average number of points per batch           ...      112
Average number of grid points per atom       ...      605
UseSFitting                                  ... on

GRIDX 2
-------
General Integration Accuracy     IntAcc      ... 4.020
Radial Grid Type                 RadialGrid  ... OptM3 with GC (2021)
Angular Grid (max. ang.)         AngularGrid ... 2 (Lebedev-110)
Angular grid pruning method      GridPruning ... 4 (adaptive)
Weight generation scheme         WeightScheme... mBecke (2022)
Basis function cutoff            BFCut       ... 1.0000e-11
Integration weight cutoff        WCut        ... 1.0000e-14
Partially contracted basis set               ... on
Rotationally invariant grid construction     ... off
Angular grids for H and He will be reduced by one unit

Total number of grid points                  ...    55252
Total number of batches                      ...      454
Average number of points per batch           ...      121
Average number of grid points per atom       ...     1316
UseSFitting                                  ... on

GRIDX 3
-------
General Integration Accuracy     IntAcc      ... 4.338
Radial Grid Type                 RadialGrid  ... OptM3 with GC (2021)
Angular Grid (max. ang.)         AngularGrid ... 3 (Lebedev-194)
Angular grid pruning method      GridPruning ... 4 (adaptive)
Weight generation scheme         WeightScheme... mBecke (2022)
Basis function cutoff            BFCut       ... 1.0000e-11
Integration weight cutoff        WCut        ... 1.0000e-14
Partially contracted basis set               ... on
Rotationally invariant grid construction     ... off
Angular grids for H and He will be reduced by one unit

Total number of grid points                  ...   120855
Total number of batches                      ...      966
Average number of points per batch           ...      125
Average number of grid points per atom       ...     2878
UseSFitting                                  ... on
Initializing property integral containers    ... done (  0.0 sec)

SHARK setup successfully completed in   8.4 seconds

Maximum memory used throughout the entire STARTUP-calculation: 139.8 MB
-------------------------------------------------------------------------------
                                 ORCA GUESS
                   Start orbitals & Density for SCF / CASSCF
-------------------------------------------------------------------------------

------------
SCF SETTINGS
------------
Hamiltonian:
 Density Functional     Method          .... DFT(GTOs)
 Exchange Functional    Exchange        .... B88
   X-Alpha parameter    XAlpha          ....  0.666667
   Becke's b parameter  XBeta           ....  0.004200
 Correlation Functional Correlation     .... LYP
 LDA part of GGA corr.  LDAOpt          .... VWN-5
 Gradients option       PostSCFGGA      .... off
 Hybrid DFT is turned on
   Fraction HF Exchange ScalHFX         ....  0.200000
   Scaling of DF-GGA-X  ScalDFX         ....  0.720000
   Scaling of DF-GGA-C  ScalDFC         ....  0.810000
   Scaling of DF-LDA-C  ScalLDAC        ....  1.000000
   Perturbative correction              ....  0.000000
   NL short-range parameter             ....  4.800000
 RI-approximation to the Coulomb term is turned on
   Number of AuxJ basis functions       .... 1374
   RIJ-COSX (HFX calculated with COS-X)).... on


General Settings:
 Integral files         IntName         .... NMU-1
 Hartree-Fock type      HFTyp           .... RHF
 Total Charge           Charge          ....    0
 Multiplicity           Mult            ....    1
 Number of Electrons    NEL             ....  168
 Basis Dimension        Dim             ....  684
 Nuclear Repulsion      ENuc            ....   1945.1116887302 Eh

Convergence Acceleration:
 AO-DIIS                CNVDIIS         .... on
   Start iteration      DIISMaxIt       ....    12
   Startup error        DIISStart       ....  0.200000
   # of expansion vecs  DIISMaxEq       ....     5
   Bias factor          DIISBfac        ....   1.050
   Max. coefficient     DIISMaxC        ....  10.000
 MO-DIIS                CNVKDIIS        .... off
 Trust-Rad. Augm. Hess. CNVTRAH         .... auto
   Auto Start mean grad. ratio tolernc. ....  1.125000
   Auto Start start iteration           ....     1
   Auto Start num. interpolation iter.  ....    10
   Max. Number of Micro iterations      ....    24
   Max. Number of Macro iterations      .... Maxiter - #DIIS iter
   Number of Davidson start vectors     ....     2
   Converg. threshold    (grad. norm)   ....   1.000e-05
   Grad. Scal. Fac. for Micro threshold ....   0.100
   Minimum threshold for Micro iter.    ....   1.000e-02
   NR start threshold (gradient norm)   ....   1.000e-04
   Initial trust radius                 ....   0.400
   Minimum AH scaling param. (alpha)    ....   1.000
   Maximum AH scaling param. (alpha)    .... 1000.000
   Quad. conv. algorithm                .... NR
   White noise on init. David. guess    .... on
   Maximum white noise                  ....   0.010
   Pseudo random numbers                .... off
   Inactive MOs                         .... canonical
   Orbital update algorithm             .... Taylor
   Preconditioner                       .... Diag
   Full preconditioner red. dimension   ....   250
 SOSCF                  CNVSOSCF        .... on
   Start iteration      SOSCFMaxIt      ....   150
   Startup grad/error   SOSCFStart      ....  0.003300
   Hessian update       SOSCFHessUp     .... L-BFGS
 Level Shifting         CNVShift        .... on
   Level shift para.    LevelShift      ....    0.2500
   Turn off err/grad.   ShiftErr        ....    0.0010
 Zerner damping         CNVZerner       .... off
 Static damping         CNVDamp         .... on
   Fraction old density DampFac         ....    0.7000
   Max. Damping (<1)    DampMax         ....    0.9800
   Min. Damping (>=0)   DampMin         ....    0.0000
   Turn off err/grad.   DampErr         ....    0.1000

SCF Procedure:
 Maximum # iterations   MaxIter         ....   125
 SCF integral mode      SCFMode         .... Direct
   Integral package                     .... SHARK and LIBINT hybrid scheme
 Reset frequency        DirectResetFreq ....    20
 Integral Threshold     Thresh          ....  2.500e-11 Eh
 Primitive CutOff       TCut            ....  2.500e-12 Eh

Convergence Tolerance:
 Convergence Check Mode ConvCheckMode   .... Total+1el-Energy
 Convergence forced     ConvForced      .... 0
 Energy Change          TolE            ....  1.000e-08 Eh
 1-El. energy change                    ....  1.000e-05 Eh
 Orbital Gradient       TolG            ....  1.000e-05
 Orbital Rotation angle TolX            ....  1.000e-05
 DIIS Error             TolErr          ....  5.000e-07

---------------------
INITIAL GUESS: MOREAD
---------------------
Guess MOs are being read from file: NMU-1.gbw
Input Geometry matches current geometry (good)
Input basis set matches current basis set (good)
Occupation numbers will be reassigned to an Aufbau configuration
MOs were renormalized
MOs were reorthogonalized (Cholesky)
                      ------------------
                      INITIAL GUESS DONE (   0.4 sec)
                      ------------------
             **** ENERGY FILE WAS UPDATED (NMU-1.en.tmp) ****
Finished Guess after   1.2 sec
Maximum memory used throughout the entire GUESS-calculation: 89.0 MB

-------------------------------------------------------------------------------------------
                                      ORCA LEAN-SCF
                              memory conserving SCF solver
-------------------------------------------------------------------------------------------

--------------------
CPCM SOLVATION MODEL
--------------------
CPCM parameters:
  Epsilon                                         ...      80.1510
  Refrac                                          ...       1.3328
  Rsolv                                           ...       1.3000
  Surface type                                    ... GAUSSIAN VDW
  Discretization scheme                           ... Constant charge density
    Threshold for H atoms                         ...       5.0000 (charges/Ang^2)
    Threshold for non-H atoms                     ...       5.0000 (charges/Ang^2)
  Epsilon function type                           ...         CPCM
Solvent:                                          ... WATER
Radii:
  Scheme                                          ... Element-dependent radii
  Radius for C  used is    3.8550 Bohr (=   2.0400 Ang.)
  Radius for H  used is    2.4944 Bohr (=   1.3200 Ang.)
  Radius for N  used is    3.5149 Bohr (=   1.8600 Ang.)
  Radius for O  used is    3.4469 Bohr (=   1.8240 Ang.)
Calculating surface                               ...        done! (  0.0s)
Cavity surface points                             ...         3551
Cavity Volume                                     ...    2464.3591
Cavity Surface-area                               ...    1222.2611
Calculating surface distance matrix               ...        done! (  0.0s)
Performing Cholesky decomposition & store         ...        done! (  1.3s)
Overall time for CPCM initialization              ...                 1.4s

----------------------------------------D-I-I-S--------------------------------------------
Iteration    Energy (Eh)           Delta-E    RMSDP     MaxDP     DIISErr   Damp  Time(sec)
-------------------------------------------------------------------------------------------
               ***  Starting incremental Fock matrix formation  ***
                              *** Initializing SOSCF ***
---------------------------------------S-O-S-C-F--------------------------------------
Iteration    Energy (Eh)           Delta-E    RMSDP     MaxDP     MaxGrad    Time(sec)
--------------------------------------------------------------------------------------
    1    -1032.7021185039398006     0.00e+00  5.02e-05  2.91e-03  2.39e-05    42.3
               *** Restarting incremental Fock matrix formation ***
    2    -1032.7021213887219346    -2.88e-06  1.01e-05  4.86e-04  3.17e-05    41.0
    3    -1032.7021216760595053    -2.87e-07  7.66e-06  7.37e-04  1.99e-05    22.7
    4    -1032.7021216366283625     3.94e-08  2.62e-06  1.22e-04  3.16e-05    20.6
    5    -1032.7021217103842901    -7.38e-08  2.96e-06  2.59e-04  6.14e-06    20.0
    6    -1032.7021217262035861    -1.58e-08  1.24e-06  8.13e-05  6.87e-06    20.8
    7    -1032.7021217054025328     2.08e-08  3.57e-06  3.07e-04  7.46e-07    20.2
                  *** Gradient check signals convergence ***

               *****************************************************
               *                     SUCCESS                       *
               *           SCF CONVERGED AFTER   7 CYCLES          *
               *****************************************************

Recomputing exchange energy using gridx3       ... done (   66.567 sec)
Old exchange energy                            :    -28.006590650 Eh
New exchange energy                            :    -28.006598115 Eh
Exchange energy change after final integration :     -0.000007464 Eh
Total energy after final integration           :  -1032.702129170 Eh
             **** ENERGY FILE WAS UPDATED (NMU-1.en.tmp) ****

----------------
TOTAL SCF ENERGY
----------------

Total Energy       :      -1032.70212916988407 Eh          -28101.25357 eV

Components:
Nuclear Repulsion  :       1945.11168873024917 Eh           52929.17992 eV
Electronic Energy  :      -2977.78618842425658 Eh          -81029.68166 eV
One Electron Energy:      -5266.31600699732371 Eh         -143303.74397 eV
Two Electron Energy:       2288.52981857306713 Eh           62274.06232 eV
CPCM Dielectric    :         -0.02762201139511 Eh              -0.75163 eV

Virial components:
Potential Energy   :      -2061.07005432453707 Eh          -56084.56746 eV
Kinetic Energy     :       1028.36792515465299 Eh           27983.31389 eV
Virial Ratio       :          2.00421464332873

DFT components:
N(Alpha)           :       83.999840618076 electrons
N(Beta)            :       83.999840618076 electrons
N(Total)           :      167.999681236153 electrons
E(X)               :     -111.300062040807 Eh       
E(C)               :       -6.756566799411 Eh       
E(XC)              :     -118.056628840218 Eh       

CPCM Solvation Model Properties:
Surface-charge          :         -0.03917110526537
Corrected charge        :          0.00000000000000
Outlying charge corr.   :          0.00007902511389 Eh               0.00215 eV
Free-energy (cav+disp)  :  This term is not implemented in the current solvation scheme

---------------
SCF CONVERGENCE
---------------

  Last Energy change         ...   -2.0801e-08  Tolerance :   1.0000e-08
  Last MAX-Density change    ...    3.0715e-04  Tolerance :   1.0000e-07
  Last RMS-Density change    ...    3.5723e-06  Tolerance :   5.0000e-09
  Last DIIS Error            ...    4.5218e-04  Tolerance :   5.0000e-07
  Last Orbital Gradient      ...    7.4588e-07  Tolerance :   1.0000e-05
  Last Orbital Rotation      ...    4.2838e-06  Tolerance :   1.0000e-05


----------------
ORBITAL ENERGIES
----------------

  NO   OCC          E(Eh)            E(eV) 
   0   2.0000     -19.192223      -522.2469 
   1   2.0000     -19.109576      -519.9980 
   2   2.0000     -14.340156      -390.2155 
   3   2.0000     -14.318587      -389.6286 
   4   2.0000     -10.305268      -280.4206 
   5   2.0000     -10.242840      -278.7219 
   6   2.0000     -10.225224      -278.2425 
   7   2.0000     -10.206834      -277.7421 
   8   2.0000     -10.204869      -277.6886 
   9   2.0000     -10.199935      -277.5543 
  10   2.0000     -10.198240      -277.5082 
  11   2.0000     -10.197698      -277.4935 
  12   2.0000     -10.195093      -277.4226 
  13   2.0000     -10.192327      -277.3473 
  14   2.0000     -10.187281      -277.2100 
  15   2.0000     -10.180868      -277.0355 
  16   2.0000     -10.179138      -276.9884 
  17   2.0000     -10.178665      -276.9755 
  18   2.0000     -10.178511      -276.9714 
  19   2.0000     -10.176122      -276.9064 
  20   2.0000     -10.169511      -276.7265 
  21   2.0000     -10.167921      -276.6832 
  22   2.0000     -10.165217      -276.6096 
  23   2.0000     -10.165214      -276.6095 
  24   2.0000      -1.119321       -30.4583 
  25   2.0000      -1.030071       -28.0297 
  26   2.0000      -0.965745       -26.2793 
  27   2.0000      -0.948974       -25.8229 
  28   2.0000      -0.868504       -23.6332 
  29   2.0000      -0.843104       -22.9420 
  30   2.0000      -0.825391       -22.4600 
  31   2.0000      -0.804127       -21.8814 
  32   2.0000      -0.779099       -21.2004 
  33   2.0000      -0.770931       -20.9781 
  34   2.0000      -0.762208       -20.7407 
  35   2.0000      -0.744824       -20.2677 
  36   2.0000      -0.689926       -18.7738 
  37   2.0000      -0.678716       -18.4688 
  38   2.0000      -0.660698       -17.9785 
  39   2.0000      -0.640858       -17.4386 
  40   2.0000      -0.634809       -17.2740 
  41   2.0000      -0.627809       -17.0835 
  42   2.0000      -0.618607       -16.8332 
  43   2.0000      -0.595486       -16.2040 
  44   2.0000      -0.560787       -15.2598 
  45   2.0000      -0.539170       -14.6716 
  46   2.0000      -0.531565       -14.4646 
  47   2.0000      -0.525235       -14.2924 
  48   2.0000      -0.507410       -13.8073 
  49   2.0000      -0.492250       -13.3948 
  50   2.0000      -0.487173       -13.2566 
  51   2.0000      -0.474730       -12.9180 
  52   2.0000      -0.471690       -12.8353 
  53   2.0000      -0.468129       -12.7384 
  54   2.0000      -0.462292       -12.5796 
  55   2.0000      -0.449904       -12.2425 
  56   2.0000      -0.445374       -12.1192 
  57   2.0000      -0.435462       -11.8495 
  58   2.0000      -0.431382       -11.7385 
  59   2.0000      -0.429147       -11.6777 
  60   2.0000      -0.421574       -11.4716 
  61   2.0000      -0.414946       -11.2912 
  62   2.0000      -0.407256       -11.0820 
  63   2.0000      -0.405801       -11.0424 
  64   2.0000      -0.405024       -11.0213 
  65   2.0000      -0.399119       -10.8606 
  66   2.0000      -0.395700       -10.7675 
  67   2.0000      -0.375397       -10.2151 
  68   2.0000      -0.370706       -10.0874 
  69   2.0000      -0.361401        -9.8342 
  70   2.0000      -0.355406        -9.6711 
  71   2.0000      -0.350165        -9.5285 
  72   2.0000      -0.340685        -9.2705 
  73   2.0000      -0.337690        -9.1890 
  74   2.0000      -0.333488        -9.0747 
  75   2.0000      -0.320638        -8.7250 
  76   2.0000      -0.315866        -8.5951 
  77   2.0000      -0.299238        -8.1427 
  78   2.0000      -0.288791        -7.8584 
  79   2.0000      -0.280680        -7.6377 
  80   2.0000      -0.267825        -7.2879 
  81   2.0000      -0.252004        -6.8574 
  82   2.0000      -0.237120        -6.4524 
  83   2.0000      -0.190798        -5.1919 
  84   0.0000      -0.067711        -1.8425 
  85   0.0000      -0.034534        -0.9397 
  86   0.0000      -0.022448        -0.6108 
  87   0.0000      -0.006853        -0.1865 
  88   0.0000       0.006758         0.1839 
  89   0.0000       0.039103         1.0640 
  90   0.0000       0.052361         1.4248 
  91   0.0000       0.061951         1.6858 
  92   0.0000       0.068176         1.8552 
  93   0.0000       0.069834         1.9003 
  94   0.0000       0.070179         1.9097 
*Only the first 10 virtual orbitals were printed.

                    ********************************
                    * MULLIKEN POPULATION ANALYSIS *
                    ********************************

-----------------------
MULLIKEN ATOMIC CHARGES
-----------------------
   0 C :   -0.110898
   1 C :   -0.163202
   2 C :   -0.228901
   3 H :    0.100189
   4 H :    0.116903
   5 C :    0.242268
   6 H :    0.125345
   7 H :    0.109916
   8 C :    0.000535
   9 N :   -0.150151
  10 H :    0.103818
  11 H :    0.130019
  12 C :   -0.111223
  13 C :   -0.150163
  14 H :    0.103596
  15 H :    0.131564
  16 C :   -0.272573
  17 H :    0.116659
  18 H :    0.100484
  19 C :    0.102315
  20 H :    0.112263
  21 H :    0.124718
  22 C :   -0.551954
  23 C :    0.078605
  24 C :    0.466599
  25 O :   -0.375162
  26 C :    0.415801
  27 C :   -0.347461
  28 C :    0.188089
  29 O :   -0.566142
  30 C :    0.196805
  31 C :   -0.205070
  32 C :   -0.045632
  33 N :   -0.502132
  34 C :    0.066508
  35 C :   -0.071983
  36 H :    0.130903
  37 H :    0.118044
  38 H :    0.123804
  39 H :    0.123220
  40 H :    0.088764
  41 H :    0.134913
Sum of atomic charges:    0.0000000

--------------------------------
MULLIKEN REDUCED ORBITAL CHARGES
--------------------------------
  0 C s       :     3.156417  s :     3.156417
      pz      :     1.017905  p :     2.846096
      px      :     0.822336
      py      :     1.005856
      dz2     :     0.021154  d :     0.108384
      dxz     :     0.030361
      dyz     :     0.015834
      dx2y2   :     0.016565
      dxy     :     0.024470

  1 C s       :     3.115388  s :     3.115388
      pz      :     0.983554  p :     2.956757
      px      :     1.022258
      py      :     0.950945
      dz2     :     0.020611  d :     0.091057
      dxz     :     0.009320
      dyz     :     0.023725
      dx2y2   :     0.018734
      dxy     :     0.018668

  2 C s       :     3.139210  s :     3.139210
      pz      :     1.037935  p :     3.000044
      px      :     0.951980
      py      :     1.010128
      dz2     :     0.012349  d :     0.089647
      dxz     :     0.019633
      dyz     :     0.015457
      dx2y2   :     0.023278
      dxy     :     0.018929

  3 H s       :     0.876526  s :     0.876526
      pz      :     0.013503  p :     0.023284
      px      :     0.004691
      py      :     0.005091

  4 H s       :     0.859246  s :     0.859246
      pz      :     0.004416  p :     0.023851
      px      :     0.013834
      py      :     0.005601

  5 C s       :     3.063628  s :     3.063628
      pz      :     0.983863  p :     2.549825
      px      :     0.762318
      py      :     0.803644
      dz2     :     0.009061  d :     0.144279
      dxz     :     0.022609
      dyz     :     0.023434
      dx2y2   :     0.046322
      dxy     :     0.042853

  6 H s       :     0.850839  s :     0.850839
      pz      :     0.009122  p :     0.023817
      px      :     0.003973
      py      :     0.010722

  7 H s       :     0.866764  s :     0.866764
      pz      :     0.011660  p :     0.023319
      px      :     0.005068
      py      :     0.006591

  8 C s       :     3.010632  s :     3.010632
      pz      :     0.930095  p :     2.796493
      px      :     0.909356
      py      :     0.957042
      dz2     :     0.008178  d :     0.192340
      dxz     :     0.043753
      dyz     :     0.030789
      dx2y2   :     0.053859
      dxy     :     0.055761

  9 N s       :     3.380992  s :     3.380992
      pz      :     1.476730  p :     3.671181
      px      :     1.086158
      py      :     1.108293
      dz2     :     0.009185  d :     0.097979
      dxz     :     0.015062
      dyz     :     0.013935
      dx2y2   :     0.028961
      dxy     :     0.030836

 10 H s       :     0.873528  s :     0.873528
      pz      :     0.012800  p :     0.022654
      px      :     0.004825
      py      :     0.005029

 11 H s       :     0.846459  s :     0.846459
      pz      :     0.005220  p :     0.023521
      px      :     0.008142
      py      :     0.010160

 12 C s       :     3.157187  s :     3.157187
      pz      :     1.001282  p :     2.846183
      px      :     1.036074
      py      :     0.808827
      dz2     :     0.027683  d :     0.107853
      dxz     :     0.012382
      dyz     :     0.021693
      dx2y2   :     0.023431
      dxy     :     0.022665

 13 C s       :     3.106513  s :     3.106513
      pz      :     1.021622  p :     2.952585
      px      :     0.922384
      py      :     1.008578
      dz2     :     0.020448  d :     0.091065
      dxz     :     0.016261
      dyz     :     0.008619
      dx2y2   :     0.026598
      dxy     :     0.019140

 14 H s       :     0.873715  s :     0.873715
      pz      :     0.015406  p :     0.022688
      px      :     0.004248
      py      :     0.003034

 15 H s       :     0.844820  s :     0.844820
      pz      :     0.005132  p :     0.023616
      px      :     0.011806
      py      :     0.006678

 16 C s       :     3.167176  s :     3.167176
      pz      :     1.030942  p :     3.014487
      px      :     1.033685
      py      :     0.949859
      dz2     :     0.018217  d :     0.090910
      dxz     :     0.008718
      dyz     :     0.019943
      dx2y2   :     0.023199
      dxy     :     0.020832

 17 H s       :     0.859476  s :     0.859476
      pz      :     0.005963  p :     0.023866
      px      :     0.003947
      py      :     0.013956

 18 H s       :     0.876256  s :     0.876256
      pz      :     0.015011  p :     0.023260
      px      :     0.003749
      py      :     0.004500

 19 C s       :     3.286011  s :     3.286011
      pz      :     1.006028  p :     2.481736
      px      :     0.714888
      py      :     0.760820
      dz2     :     0.014763  d :     0.129938
      dxz     :     0.022183
      dyz     :     0.021528
      dx2y2   :     0.025164
      dxy     :     0.046299

 20 H s       :     0.864306  s :     0.864306
      pz      :     0.015147  p :     0.023431
      px      :     0.004464
      py      :     0.003820

 21 H s       :     0.851183  s :     0.851183
      pz      :     0.005672  p :     0.024100
      px      :     0.012818
      py      :     0.005610

 22 C s       :     3.496611  s :     3.496611
      pz      :     0.979079  p :     2.957256
      px      :     1.039631
      py      :     0.938547
      dz2     :     0.006735  d :     0.098087
      dxz     :     0.029194
      dyz     :     0.007073
      dx2y2   :     0.033600
      dxy     :     0.021484

 23 C s       :     3.176644  s :     3.176644
      pz      :     0.922636  p :     2.555711
      px      :     0.723338
      py      :     0.909737
      dz2     :     0.011855  d :     0.189040
      dxz     :     0.040093
      dyz     :     0.030606
      dx2y2   :     0.058660
      dxy     :     0.047825

 24 C s       :     2.982735  s :     2.982735
      pz      :     0.967952  p :     2.408712
      px      :     0.653613
      py      :     0.787147
      dz2     :     0.012642  d :     0.141955
      dxz     :     0.027807
      dyz     :     0.020748
      dx2y2   :     0.049304
      dxy     :     0.031454

 25 O s       :     3.821628  s :     3.821628
      pz      :     1.666463  p :     4.507802
      px      :     1.229344
      py      :     1.611995
      dz2     :     0.005537  d :     0.045731
      dxz     :     0.009344
      dyz     :     0.004333
      dx2y2   :     0.008025
      dxy     :     0.018493

 26 C s       :     2.910593  s :     2.910593
      pz      :     0.811039  p :     2.418319
      px      :     0.682603
      py      :     0.924676
      dz2     :     0.013525  d :     0.255287
      dxz     :     0.049214
      dyz     :     0.035592
      dx2y2   :     0.099545
      dxy     :     0.057411

 27 C s       :     3.330699  s :     3.330699
      pz      :     0.905345  p :     2.917106
      px      :     1.020288
      py      :     0.991473
      dz2     :     0.006909  d :     0.099656
      dxz     :     0.033576
      dyz     :     0.006535
      dx2y2   :     0.030676
      dxy     :     0.021960

 28 C s       :     3.104534  s :     3.104534
      pz      :     1.058623  p :     2.575906
      px      :     0.749140
      py      :     0.768143
      dz2     :     0.011227  d :     0.131471
      dxz     :     0.022447
      dyz     :     0.013610
      dx2y2   :     0.052054
      dxy     :     0.032132

 29 O s       :     3.868340  s :     3.868340
      pz      :     1.488194  p :     4.664927
      px      :     1.513928
      py      :     1.662805
      dz2     :     0.004061  d :     0.032875
      dxz     :     0.008420
      dyz     :     0.003548
      dx2y2   :     0.007587
      dxy     :     0.009259

 30 C s       :     3.127276  s :     3.127276
      pz      :     0.819819  p :     2.521307
      px      :     0.806746
      py      :     0.894741
      dz2     :     0.030650  d :     0.154613
      dxz     :     0.041918
      dyz     :     0.026393
      dx2y2   :     0.023410
      dxy     :     0.032241

 31 C s       :     3.224082  s :     3.224082
      pz      :     0.968135  p :     2.893450
      px      :     0.984523
      py      :     0.940792
      dz2     :     0.011762  d :     0.087537
      dxz     :     0.022360
      dyz     :     0.012746
      dx2y2   :     0.022095
      dxy     :     0.018575

 32 C s       :     3.167914  s :     3.167914
      pz      :     0.960101  p :     2.776083
      px      :     0.914918
      py      :     0.901063
      dz2     :     0.013689  d :     0.101635
      dxz     :     0.028428
      dyz     :     0.017803
      dx2y2   :     0.027584
      dxy     :     0.014131

 33 N s       :     3.579860  s :     3.579860
      pz      :     1.402342  p :     3.847745
      px      :     1.120538
      py      :     1.324865
      dz2     :     0.014551  d :     0.074527
      dxz     :     0.019113
      dyz     :     0.008895
      dx2y2   :     0.014416
      dxy     :     0.017552

 34 C s       :     3.123745  s :     3.123745
      pz      :     0.854721  p :     2.711846
      px      :     0.912463
      py      :     0.944662
      dz2     :     0.030476  d :     0.097901
      dxz     :     0.017756
      dyz     :     0.017826
      dx2y2   :     0.012055
      dxy     :     0.019788

 35 C s       :     3.143948  s :     3.143948
      pz      :     0.950351  p :     2.848308
      px      :     0.956532
      py      :     0.941424
      dz2     :     0.012956  d :     0.079728
      dxz     :     0.020264
      dyz     :     0.014062
      dx2y2   :     0.019097
      dxy     :     0.013349

 36 H s       :     0.844026  s :     0.844026
      pz      :     0.010928  p :     0.025071
      px      :     0.010425
      py      :     0.003717

 37 H s       :     0.855696  s :     0.855696
      pz      :     0.010278  p :     0.026261
      px      :     0.011677
      py      :     0.004306

 38 H s       :     0.851353  s :     0.851353
      pz      :     0.003325  p :     0.024843
      px      :     0.012532
      py      :     0.008986

 39 H s       :     0.850328  s :     0.850328
      pz      :     0.012059  p :     0.026451
      px      :     0.003830
      py      :     0.010562

 40 H s       :     0.885108  s :     0.885108
      pz      :     0.006097  p :     0.026127
      px      :     0.003511
      py      :     0.016520

 41 H s       :     0.838938  s :     0.838938
      pz      :     0.005434  p :     0.026149
      px      :     0.003628
      py      :     0.017086



                     *******************************
                     * LOEWDIN POPULATION ANALYSIS *
                     *******************************

----------------------
LOEWDIN ATOMIC CHARGES
----------------------
   0 C :   -0.190949
   1 C :   -0.218876
   2 C :   -0.187241
   3 H :    0.129308
   4 H :    0.130968
   5 C :   -0.106623
   6 H :    0.135879
   7 H :    0.137214
   8 C :   -0.070230
   9 N :    0.122312
  10 H :    0.124234
  11 H :    0.129981
  12 C :   -0.189117
  13 C :   -0.217450
  14 H :    0.124652
  15 H :    0.130352
  16 C :   -0.187577
  17 H :    0.131072
  18 H :    0.129844
  19 C :   -0.089611
  20 H :    0.137447
  21 H :    0.135417
  22 C :   -0.066202
  23 C :   -0.090137
  24 C :   -0.132933
  25 O :    0.220237
  26 C :   -0.250071
  27 C :   -0.016764
  28 C :   -0.103149
  29 O :   -0.073424
  30 C :   -0.103662
  31 C :   -0.065308
  32 C :   -0.129458
  33 N :    0.001578
  34 C :   -0.166973
  35 C :   -0.131156
  36 H :    0.137234
  37 H :    0.143945
  38 H :    0.131808
  39 H :    0.146835
  40 H :    0.149236
  41 H :    0.157353

-------------------------------
LOEWDIN REDUCED ORBITAL CHARGES
-------------------------------
  0 C s       :     2.780587  s :     2.780587
      pz      :     1.052140  p :     2.965533
      px      :     0.888545
      py      :     1.024849
      dz2     :     0.083302  d :     0.444829
      dxz     :     0.104034
      dyz     :     0.069447
      dx2y2   :     0.069100
      dxy     :     0.118945

  1 C s       :     2.779919  s :     2.779919
      pz      :     1.027633  p :     3.071034
      px      :     1.020907
      py      :     1.022495
      dz2     :     0.090456  d :     0.367922
      dxz     :     0.035926
      dyz     :     0.086099
      dx2y2   :     0.080002
      dxy     :     0.075438

  2 C s       :     2.768390  s :     2.768390
      pz      :     1.036168  p :     3.048927
      px      :     0.998515
      py      :     1.014244
      dz2     :     0.043253  d :     0.369924
      dxz     :     0.069454
      dyz     :     0.086716
      dx2y2   :     0.089652
      dxy     :     0.080849

  3 H s       :     0.812488  s :     0.812488
      pz      :     0.029920  p :     0.058204
      px      :     0.013652
      py      :     0.014632

  4 H s       :     0.810297  s :     0.810297
      pz      :     0.012078  p :     0.058735
      px      :     0.031145
      py      :     0.015512

  5 C s       :     2.718133  s :     2.718133
      pz      :     0.900302  p :     2.906192
      px      :     1.010744
      py      :     0.995147
      dz2     :     0.036030  d :     0.482297
      dxz     :     0.076715
      dyz     :     0.067302
      dx2y2   :     0.156882
      dxy     :     0.145368

  6 H s       :     0.805730  s :     0.805730
      pz      :     0.023153  p :     0.058391
      px      :     0.011570
      py      :     0.023668

  7 H s       :     0.804697  s :     0.804697
      pz      :     0.028174  p :     0.058088
      px      :     0.014135
      py      :     0.015779

  8 C s       :     2.700667  s :     2.700667
      pz      :     0.857090  p :     2.768428
      px      :     0.940236
      py      :     0.971102
      dz2     :     0.046316  d :     0.601135
      dxz     :     0.123627
      dyz     :     0.088815
      dx2y2   :     0.165069
      dxy     :     0.177308

  9 N s       :     2.910429  s :     2.910429
      pz      :     1.375002  p :     3.691687
      px      :     1.148051
      py      :     1.168634
      dz2     :     0.024888  d :     0.275571
      dxz     :     0.042942
      dyz     :     0.036986
      dx2y2   :     0.086727
      dxy     :     0.084028

 10 H s       :     0.817780  s :     0.817780
      pz      :     0.030814  p :     0.057985
      px      :     0.012495
      py      :     0.014676

 11 H s       :     0.811682  s :     0.811682
      pz      :     0.015134  p :     0.058337
      px      :     0.018316
      py      :     0.024887

 12 C s       :     2.780164  s :     2.780164
      pz      :     1.025339  p :     2.965920
      px      :     1.045734
      py      :     0.894847
      dz2     :     0.119199  d :     0.443033
      dxz     :     0.043627
      dyz     :     0.083110
      dx2y2   :     0.096259
      dxy     :     0.100839

 13 C s       :     2.779493  s :     2.779493
      pz      :     1.037488  p :     3.070039
      px      :     1.017969
      py      :     1.014582
      dz2     :     0.086535  d :     0.367917
      dxz     :     0.061071
      dyz     :     0.043489
      dx2y2   :     0.103987
      dxy     :     0.072836

 14 H s       :     0.817333  s :     0.817333
      pz      :     0.036377  p :     0.058014
      px      :     0.012352
      py      :     0.009285

 15 H s       :     0.811176  s :     0.811176
      pz      :     0.014693  p :     0.058471
      px      :     0.027732
      py      :     0.016046

 16 C s       :     2.766745  s :     2.766745
      pz      :     1.034097  p :     3.050122
      px      :     1.024370
      py      :     0.991654
      dz2     :     0.086673  d :     0.370710
      dxz     :     0.041851
      dyz     :     0.061236
      dx2y2   :     0.094992
      dxy     :     0.085958

 17 H s       :     0.810220  s :     0.810220
      pz      :     0.016541  p :     0.058708
      px      :     0.012020
      py      :     0.030148

 18 H s       :     0.811969  s :     0.811969
      pz      :     0.034358  p :     0.058187
      px      :     0.011706
      py      :     0.012123

 19 C s       :     2.711202  s :     2.711202
      pz      :     0.932804  p :     2.914117
      px      :     0.996502
      py      :     0.984811
      dz2     :     0.042413  d :     0.464293
      dxz     :     0.070783
      dyz     :     0.067173
      dx2y2   :     0.133638
      dxy     :     0.150285

 20 H s       :     0.804319  s :     0.804319
      pz      :     0.034359  p :     0.058234
      px      :     0.012463
      py      :     0.011411

 21 H s       :     0.805316  s :     0.805316
      pz      :     0.016099  p :     0.059267
      px      :     0.028841
      py      :     0.014326

 22 C s       :     2.758614  s :     2.758614
      pz      :     0.903384  p :     2.926901
      px      :     1.031453
      py      :     0.992063
      dz2     :     0.023884  d :     0.380687
      dxz     :     0.089070
      dyz     :     0.023741
      dx2y2   :     0.146985
      dxy     :     0.097008

 23 C s       :     2.707613  s :     2.707613
      pz      :     0.886114  p :     2.741622
      px      :     0.847504
      py      :     1.008004
      dz2     :     0.055024  d :     0.640902
      dxz     :     0.122495
      dyz     :     0.087167
      dx2y2   :     0.176243
      dxy     :     0.199972

 24 C s       :     2.697666  s :     2.697666
      pz      :     0.925698  p :     2.932566
      px      :     1.007910
      py      :     0.998958
      dz2     :     0.043169  d :     0.502701
      dxz     :     0.079974
      dyz     :     0.068345
      dx2y2   :     0.162303
      dxy     :     0.148910

 25 O s       :     3.271765  s :     3.271765
      pz      :     1.562819  p :     4.404994
      px      :     1.272427
      py      :     1.569748
      dz2     :     0.011622  d :     0.103004
      dxz     :     0.022909
      dyz     :     0.005686
      dx2y2   :     0.025438
      dxy     :     0.037348

 26 C s       :     2.743835  s :     2.743835
      pz      :     0.794356  p :     2.625432
      px      :     0.855598
      py      :     0.975477
      dz2     :     0.075452  d :     0.880805
      dxz     :     0.154683
      dyz     :     0.103096
      dx2y2   :     0.279905
      dxy     :     0.267669

 27 C s       :     2.764148  s :     2.764148
      pz      :     0.833159  p :     2.865693
      px      :     1.037216
      py      :     0.995319
      dz2     :     0.025020  d :     0.386924
      dxz     :     0.095747
      dyz     :     0.023423
      dx2y2   :     0.143093
      dxy     :     0.099641

 28 C s       :     2.714817  s :     2.714817
      pz      :     0.940246  p :     2.930711
      px      :     1.009625
      py      :     0.980840
      dz2     :     0.036211  d :     0.457620
      dxz     :     0.074572
      dyz     :     0.053539
      dx2y2   :     0.158890
      dxy     :     0.134409

 29 O s       :     3.437289  s :     3.437289
      pz      :     1.424822  p :     4.570093
      px      :     1.541247
      py      :     1.604023
      dz2     :     0.007926  d :     0.066041
      dxz     :     0.013599
      dyz     :     0.005878
      dx2y2   :     0.016860
      dxy     :     0.021779

 30 C s       :     2.716722  s :     2.716722
      pz      :     0.999305  p :     2.893986
      px      :     0.966959
      py      :     0.927722
      dz2     :     0.100671  d :     0.492955
      dxz     :     0.118661
      dyz     :     0.085437
      dx2y2   :     0.092234
      dxy     :     0.095951

 31 C s       :     2.774450  s :     2.774450
      pz      :     0.961826  p :     2.919476
      px      :     1.017119
      py      :     0.940532
      dz2     :     0.061239  d :     0.371382
      dxz     :     0.082394
      dyz     :     0.070949
      dx2y2   :     0.086187
      dxy     :     0.070614

 32 C s       :     2.779110  s :     2.779110
      pz      :     0.982294  p :     2.879821
      px      :     0.952225
      py      :     0.945301
      dz2     :     0.066010  d :     0.470528
      dxz     :     0.136188
      dyz     :     0.072049
      dx2y2   :     0.103180
      dxy     :     0.093102

 33 N s       :     3.079532  s :     3.079532
      pz      :     1.313106  p :     3.706421
      px      :     1.156191
      py      :     1.237125
      dz2     :     0.034943  d :     0.212469
      dxz     :     0.054951
      dyz     :     0.024237
      dx2y2   :     0.047998
      dxy     :     0.050340

 34 C s       :     2.789197  s :     2.789197
      pz      :     0.988236  p :     2.903194
      px      :     0.954162
      py      :     0.960795
      dz2     :     0.133582  d :     0.474582
      dxz     :     0.103298
      dyz     :     0.082168
      dx2y2   :     0.054497
      dxy     :     0.101037

 35 C s       :     2.782344  s :     2.782344
      pz      :     0.994402  p :     2.986312
      px      :     1.002668
      py      :     0.989242
      dz2     :     0.056055  d :     0.362500
      dxz     :     0.100682
      dyz     :     0.061622
      dx2y2   :     0.080545
      dxy     :     0.063596

 36 H s       :     0.802757  s :     0.802757
      pz      :     0.025074  p :     0.060008
      px      :     0.024017
      py      :     0.010917

 37 H s       :     0.794635  s :     0.794635
      pz      :     0.023245  p :     0.061420
      px      :     0.025797
      py      :     0.012378

 38 H s       :     0.808627  s :     0.808627
      pz      :     0.010638  p :     0.059565
      px      :     0.027801
      py      :     0.021127

 39 H s       :     0.791092  s :     0.791092
      pz      :     0.026704  p :     0.062073
      px      :     0.011755
      py      :     0.023615

 40 H s       :     0.790076  s :     0.790076
      pz      :     0.015199  p :     0.060688
      px      :     0.010929
      py      :     0.034560

 41 H s       :     0.781897  s :     0.781897
      pz      :     0.013361  p :     0.060751
      px      :     0.010953
      py      :     0.036437



                      *****************************
                      * MAYER POPULATION ANALYSIS *
                      *****************************

  NA   - Mulliken gross atomic population
  ZA   - Total nuclear charge
  QA   - Mulliken gross atomic charge
  VA   - Mayer's total valence
  BVA  - Mayer's bonded valence
  FA   - Mayer's free valence

  ATOM       NA         ZA         QA         VA         BVA        FA
  0 C      6.1109     6.0000    -0.1109     3.9130     3.9130     0.0000
  1 C      6.1632     6.0000    -0.1632     3.9537     3.9537     0.0000
  2 C      6.2289     6.0000    -0.2289     3.9167     3.9167     0.0000
  3 H      0.8998     1.0000     0.1002     0.9682     0.9682    -0.0000
  4 H      0.8831     1.0000     0.1169     0.9584     0.9584     0.0000
  5 C      5.7577     6.0000     0.2423     3.6726     3.6726     0.0000
  6 H      0.8747     1.0000     0.1253     0.9526     0.9526    -0.0000
  7 H      0.8901     1.0000     0.1099     0.9545     0.9545    -0.0000
  8 C      5.9995     6.0000     0.0005     4.0815     4.0815     0.0000
  9 N      7.1502     7.0000    -0.1502     3.3205     3.3205     0.0000
 10 H      0.8962     1.0000     0.1038     0.9536     0.9536     0.0000
 11 H      0.8700     1.0000     0.1300     0.9493     0.9493    -0.0000
 12 C      6.1112     6.0000    -0.1112     3.9086     3.9086    -0.0000
 13 C      6.1502     6.0000    -0.1502     3.9512     3.9512     0.0000
 14 H      0.8964     1.0000     0.1036     0.9556     0.9556    -0.0000
 15 H      0.8684     1.0000     0.1316     0.9490     0.9490    -0.0000
 16 C      6.2726     6.0000    -0.2726     3.9551     3.9551     0.0000
 17 H      0.8833     1.0000     0.1167     0.9588     0.9588     0.0000
 18 H      0.8995     1.0000     0.1005     0.9673     0.9673     0.0000
 19 C      5.8977     6.0000     0.1023     3.6500     3.6500     0.0000
 20 H      0.8877     1.0000     0.1123     0.9550     0.9550     0.0000
 21 H      0.8753     1.0000     0.1247     0.9571     0.9571    -0.0000
 22 C      6.5520     6.0000    -0.5520     3.8359     3.8359     0.0000
 23 C      5.9214     6.0000     0.0786     3.9081     3.9081    -0.0000
 24 C      5.5334     6.0000     0.4666     3.5098     3.5098    -0.0000
 25 O      8.3752     8.0000    -0.3752     2.1154     2.1154    -0.0000
 26 C      5.5842     6.0000     0.4158     4.2595     4.2595     0.0000
 27 C      6.3475     6.0000    -0.3475     3.8186     3.8186    -0.0000
 28 C      5.8119     6.0000     0.1881     3.4355     3.4355    -0.0000
 29 O      8.5661     8.0000    -0.5661     2.0141     2.0141     0.0000
 30 C      5.8032     6.0000     0.1968     3.7798     3.7798    -0.0000
 31 C      6.2051     6.0000    -0.2051     4.0469     4.0469     0.0000
 32 C      6.0456     6.0000    -0.0456     4.0724     4.0724     0.0000
 33 N      7.5021     7.0000    -0.5021     3.0353     3.0353     0.0000
 34 C      5.9335     6.0000     0.0665     4.0159     4.0159     0.0000
 35 C      6.0720     6.0000    -0.0720     3.9289     3.9289     0.0000
 36 H      0.8691     1.0000     0.1309     0.9822     0.9822     0.0000
 37 H      0.8820     1.0000     0.1180     0.9673     0.9673     0.0000
 38 H      0.8762     1.0000     0.1238     0.9743     0.9743     0.0000
 39 H      0.8768     1.0000     0.1232     0.9827     0.9827     0.0000
 40 H      0.9112     1.0000     0.0888     0.9899     0.9899     0.0000
 41 H      0.8651     1.0000     0.1349     0.9770     0.9770     0.0000

  Mayer bond orders larger than 0.100000
B(  0-C ,  1-C ) :   1.0031 B(  0-C ,  9-N ) :   0.9530 B(  0-C , 10-H ) :   0.9474 
B(  0-C , 11-H ) :   0.9516 B(  1-C ,  2-C ) :   1.0236 B(  1-C ,  3-H ) :   0.9682 
B(  1-C ,  4-H ) :   0.9606 B(  2-C ,  5-C ) :   0.9970 B(  2-C ,  6-H ) :   0.9555 
B(  2-C ,  7-H ) :   0.9457 B(  5-C ,  8-C ) :   1.2445 B(  5-C , 22-C ) :   1.3824 
B(  8-C ,  9-N ) :   1.3494 B(  8-C , 19-C ) :   1.2536 B(  9-N , 12-C ) :   0.9523 
B( 12-C , 13-C ) :   0.9977 B( 12-C , 14-H ) :   0.9481 B( 12-C , 15-H ) :   0.9528 
B( 13-C , 16-C ) :   1.0381 B( 13-C , 17-H ) :   0.9627 B( 13-C , 18-H ) :   0.9665 
B( 16-C , 19-C ) :   1.0390 B( 16-C , 20-H ) :   0.9532 B( 16-C , 21-H ) :   0.9474 
B( 19-C , 23-C ) :   1.3249 B( 22-C , 24-C ) :   1.1022 B( 22-C , 40-H ) :   1.0559 
B( 23-C , 24-C ) :   1.3594 B( 23-C , 25-O ) :   1.0228 B( 24-C , 27-C ) :   1.1164 
B( 25-O , 26-C ) :   1.0976 B( 26-C , 28-C ) :   1.1158 B( 26-C , 29-O ) :   1.9351 
B( 27-C , 28-C ) :   1.4318 B( 27-C , 41-H ) :   0.9788 B( 28-C , 30-C ) :   0.9447 
B( 30-C , 31-C ) :   1.4030 B( 30-C , 32-C ) :   1.3937 B( 31-C , 35-C ) :   1.4636 
B( 31-C , 39-H ) :   0.9700 B( 32-C , 33-N ) :   1.5034 B( 32-C , 36-H ) :   0.9655 
B( 33-N , 34-C ) :   1.4640 B( 34-C , 35-C ) :   1.4237 B( 34-C , 38-H ) :   0.9652 
B( 35-C , 37-H ) :   0.9630 

-------
TIMINGS
-------

Total SCF time: 0 days 0 hours 4 min 16 sec 

Total time                  ....     256.635 sec
Sum of individual times     ....     255.859 sec  ( 99.7%)

SCF preparation             ....       2.044 sec  (  0.8%)
Fock matrix formation       ....     251.267 sec  ( 97.9%)
  Startup                   ....       0.180 sec  (  0.1% of F)
  Split-RI-J                ....      15.394 sec  (  6.1% of F)
  Chain of spheres X        ....     196.136 sec  ( 78.1% of F)
  XC integration            ....      14.951 sec  (  6.0% of F)
    XC Preparation          ....       0.000 sec  (  0.0% of XC)
    Basis function eval.    ....       3.865 sec  ( 25.9% of XC)
    Density eval.           ....       4.383 sec  ( 29.3% of XC)
    XC-Functional eval.     ....       0.267 sec  (  1.8% of XC)
    XC-Potential eval.      ....       3.892 sec  ( 26.0% of XC)
  CPCM terms                ....      22.908 sec  (  9.1% of F)
Diagonalization             ....       0.000 sec  (  0.0%)
Density matrix formation    ....       0.431 sec  (  0.2%)
Total Energy calculation    ....       0.062 sec  (  0.0%)
Population analysis         ....       0.058 sec  (  0.0%)
Orbital Transformation      ....       0.153 sec  (  0.1%)
Orbital Orthonormalization  ....       0.000 sec  (  0.0%)
DIIS solution               ....       0.424 sec  (  0.2%)
SOSCF solution              ....       1.420 sec  (  0.6%)
Finished LeanSCF after 256.7 sec

Maximum memory used throughout the entire LEANSCF-calculation: 171.0 MB

------------------------------------------------------------------------------
                         ORCA PROPERTY INTEGRAL CALCULATIONS
------------------------------------------------------------------------------

GBWName                                   ... NMU-1.gbw
Number of atoms                           ...     42
Number of basis functions                 ...    684
Max core memory                           ...   1024 MB

Dipole integrals                          ... YES
Quadrupole integrals                      ...  NO
Linear momentum integrals                 ...  NO
Angular momentum integrals                ...  NO
Higher moments length integrals           ...  NO
Higher moments velocity integrals         ...  NO
Kinetic energy integrals                  ...  NO
GIAO right hand sides                     ...  NO
GIAO dipole derivative integrals          ...  NO
SOC integrals                             ...  NO
EPR diamagnetic integrals (GIAO)          ...  NO
EPR gauge integrals                       ...  NO
Field gradient integrals                  ...  NO (   0 nuclei)
Spin-dipole/Fermi contact integrals       ...  NO (   0 nuclei)
Contact density integrals                 ...  NO (   0 nuclei)
Nucleus-orbit integrals                   ...  NO (   0 nuclei)
Geometric perturbations                   ... YES (  42 nuclei)

Choice of electric origin   ... Center of mass
Position of electric origin ... ( -2.6812, -5.0704,  0.0558) 
Choice of magnetic origin   ... GIAO
Position of magnetic origin ... (  0.0000,  0.0000,  0.0000) 

Calculating integrals                     ... Electric Dipole (Length)     done (  0.1 sec)
Calculating integrals                     ... Geometrical perturbation right hand sides

-----------------------
GEOMETRIC PERTURBATIONS (42 nuclei)
-----------------------

MaxCore                            ...   1024 MB
Number of batches                  ...      3

BATCH   0: Atoms    0 -   14 ( 45 perturbations)
   => H(core) and overlap derivative integrals     ... done (     0.8 sec)
   => Making and storing internal U-coefficients   ... done (     0.9 sec)
   => RI-J derivative integrals                    ... done (    25.5 sec)
   => RI-J response operators                      ... done (     7.7 sec)
   => Chain of spheres derivative integrals        ... done (    97.2 sec)
   => Chain of spheres response operator           ... done (   215.4 sec)
   => XC derivative integrals                      ... done (   179.1 sec)
   => XC response operators                        ... done (    81.2 sec)
   => CPCM derivative integrals                    ... done (   132.1 sec)
   => CPCM response operators                      ... done (   183.7 sec)
   => Completing and storing right hand sides      ... done (     0.8 sec)
BATCH   1: Atoms   15 -   29 ( 45 perturbations)
   => H(core) and overlap derivative integrals     ... done (     0.8 sec)
   => Making and storing internal U-coefficients   ... done (     1.0 sec)
   => RI-J derivative integrals                    ... done (    26.4 sec)
   => RI-J response operators                      ... done (     7.8 sec)
   => Chain of spheres derivative integrals        ... done (   120.4 sec)
   => Chain of spheres response operator           ... done (   221.1 sec)
   => XC derivative integrals                      ... done (   219.2 sec)
   => XC response operators                        ... done (    87.7 sec)
   => CPCM derivative integrals                    ... done (   132.7 sec)
   => CPCM response operators                      ... done (   184.9 sec)
   => Completing and storing right hand sides      ... done (     0.7 sec)
BATCH   2: Atoms   30 -   41 ( 36 perturbations)
   => H(core) and overlap derivative integrals     ... done (     0.6 sec)
   => Making and storing internal U-coefficients   ... done (     1.7 sec)
   => RI-J derivative integrals                    ... done (    20.3 sec)
   => RI-J response operators                      ... done (     6.1 sec)
   => Chain of spheres derivative integrals        ... done (    63.5 sec)
   => Chain of spheres response operator           ... done (   152.6 sec)
   => XC derivative integrals                      ... done (   125.9 sec)
   => XC response operators                        ... done (    58.6 sec)
   => CPCM derivative integrals                    ... done (   122.6 sec)
   => CPCM response operators                      ... done (   161.7 sec)
   => Completing and storing right hand sides      ... done (     0.9 sec)
   => Total time for right hand sides = 2273.3 sec

  geometrical perturbations done (2273.3 sec)

Property integrals calculated in 2273.4 sec

Maximum memory used throughout the entire PROPINT-calculation: 665.5 MB


-------------------------------------------------------------------------------
                          DFT DISPERSION CORRECTION                            
                                                                               
                              DFTD3 V3.1  Rev 1                                
                          USING Becke-Johnson damping                          
-------------------------------------------------------------------------------
The B3LYP functional is recognized
Active option DFTDOPT                   ...         4   

molecular C6(AA) [au] = 20156.204765 


            DFT-D V3
 parameters
 s6 scaling factor         :     1.0000 
 a1 scaling factor         :     0.3981 
 s8 scaling factor         :     1.9889 
 a2 scaling factor         :     4.4211 
 ad hoc parameters k1-k3   :    16.0000     1.3333    -4.0000 

 Edisp/kcal,au: -61.572204706587  -0.098121543472 
 E6   /kcal   : -28.887130837 
 E8   /kcal   : -32.685073870 
 % E8         :  53.084137600 

-------------------------   ----------------
Dispersion correction           -0.098121543
-------------------------   ----------------


-------------------------   --------------------
FINAL SINGLE POINT ENERGY     -1032.800250713356
-------------------------   --------------------

                                *** OPTIMIZATION RUN DONE ***

------------------------------------------------------------------------------
                            ORCA SCF RESPONSE CALCULATION
------------------------------------------------------------------------------

GBWName                                 ... NMU-1.gbw
Number of atoms                         ...     42
Number of basis functions               ...    684
Max core memory                         ...   1024 MB

Electric field perturbation             ...  NO
Quadrupolar field perturbation          ...  NO
Magnetic field perturbation (no GIAO)   ...  NO
Magnetic field perturbation (with GIAO) ...  NO
Linear momentum (velocity) perturbation ...  NO
Spin-orbit coupling perturbation        ...  NO
Choice of electric origin               ... Center of mass
Position of electric origin             ...    -2.681239    -5.070449     0.055828
Choice of magnetic origin               ... GIAO
Position of magnetic origin             ...     0.000000     0.000000     0.000000
Nuclear geometric perturbations         ... YES ( 126 perturbations)
Nucleus-orbit perturbations             ...  NO (   0 perturbations)
Spin-dipole/Fermi contact perturbations ...  NO (   0 perturbations)

Total number of real perturbations      ...    126
Total number of imaginary perturbations ...      0
Total number of triplet perturbations   ...      0
Total number of SOC perturbations       ...      0


                                **********************
                                * REAL PERTURBATIONS *
                                **********************



-------------------
SHARK CP-SCF DRIVER
-------------------

Dimension of the orbital basis          ...    684
Dimension of the CPSCF-problem          ...  50400
Number of operators                     ...      1
Max. number of iterations               ...    128
Convergence Tolerance                   ... 1.0e-04
Number of perturbations                 ...    126
Perturbation type                       ... REAL

----------------------------
POPLE LINEAR EQUATION SOLVER
----------------------------

  ITERATION   0:   ||err||_max =   6.6798e-01 ( 447.7 sec   0/126 done)
  ITERATION   1:   ||err||_max =   5.1076e-02 ( 440.4 sec   0/126 done)
  ITERATION   2:   ||err||_max =   2.3772e-02 ( 444.4 sec   0/126 done)
  ITERATION   3:   ||err||_max =   8.9874e-03 ( 439.9 sec   0/126 done)
  ITERATION   4:   ||err||_max =   4.0941e-03 ( 432.6 sec   1/126 done)
  ITERATION   5:   ||err||_max =   1.0123e-03 ( 475.1 sec  26/126 done)
  ITERATION   6:   ||err||_max =   3.9662e-04 ( 341.7 sec  74/126 done)
  ITERATION   7:   ||err||_max =   1.2327e-04 ( 172.0 sec 122/126 done)
  ITERATION   8:   ||err||_max =   4.3181e-05 (  29.1 sec 126/126 done)

CP-SCF equations solved in 3243.0 sec
Response densities calculated in   2.9 sec

Maximum memory used throughout the entire SCFRESP-calculation: 946.7 MB

------------------------------------------------------------------------------
                              ORCA PROPERTY CALCULATIONS
------------------------------------------------------------------------------

GBWName                                 ... NMU-1.gbw
Number of atoms                         ...     42
Number of basis functions               ...    684
Max core memory                         ...   1024 MB

Electric properties:
Dipole moment                           ... YES
Quadrupole moment                       ...  NO
Static polarizability (Dipole/Dipole)   ...  NO
Static polarizability (Dipole/Quad.)    ...  NO
Static polarizability (Quad./Quad.)     ...  NO
Static polarizability (Velocity)        ...  NO

Atomic electric properties:
Dipole moment                           ...  NO
Quadrupole moment                       ...  NO
Static polarizability                   ...  NO

Choice of electric origin               ... Center of mass
Position of electric origin             ...    -2.681239    -5.070449     0.055828

General magnetic properties:
Magnetizability                         ...  NO

EPR properties:
g-Tensor (aka g-matrix)                 ...  NO
Zero-Field splitting spin-orbit         ...  NO
Zero-field splitting spin-spin          ...  NO
Hyperfine couplings                     ...  NO (   0 nuclei)
Quadrupole couplings                    ...  NO (   0 nuclei)
Contact density                         ...  NO (   0 nuclei)

NMR properties:
Chemical shifts                         ...  NO (   0 nuclei)
Spin-rotation constants                 ...  NO (   0 nuclei)
Spin-spin couplings                     ...  NO (   0 nuclei,    0 pairs)

Choice of magnetic origin               ... GIAO
Position of magnetic origin             ...     0.000000     0.000000     0.000000

Properties with geometric perturbations:
SCF Hessian                             ... YES
IR spectrum                             ... YES
VCD spectrum                            ...  NO
X-ray spectroscopy properties:
SCF XES/XAS/RIXS spectra                ...  NO


-------------
DIPOLE MOMENT
-------------

Method             : SCF
Type of density    : Electron Density
Multiplicity       :   1
Irrep              :   0
Energy             : -1032.7021291698840741 Eh
Relativity type    : 
Basis              : AO
                                X                 Y                 Z
Electronic contribution:     20.505837777      -6.254665404       0.700324014
Nuclear contribution   :    -25.226731159       6.603428645      -0.289868370
                        -----------------------------------------
Total Dipole Moment    :     -4.720893382       0.348763241       0.410455644
                        -----------------------------------------
Magnitude (a.u.)       :      4.751520174
Magnitude (Debye)      :     12.077404474



--------------------
Rotational spectrum 
--------------------
 
Rotational constants in cm-1:             0.021348             0.003951             0.003403 
Rotational constants in MHz :           640.001260           118.461296           102.011168 

Dipole components along the rotational axes: 
x,y,z [a.u.] :    -4.465389    -1.323275     0.941375 
x,y,z [Debye]:   -11.350117    -3.363497     2.392785 

 

Dipole moment calculation done in   0.0 sec 

-----------
SCF HESSIAN
-----------

Occupied/Occupied contributions to the Hessian:
   => Occupied/Occupied contributions              ... done (  0.2 sec)
Perturbed density contributions to the Hessian:
   => Perturbed density contributions              ... done (  1.5 sec)
Explicit contributions to the Hessian:
   => Nuclear repulsion Hessian                    ... done (  0.0 sec)
   => HCore and overlap Hessian                    ... done (155.5 sec)
   => RI-J Hessian                                 ... done ( 79.8 sec)
   => COSX Hessian                                 ... done (1778.2 sec)
   => XC-Hessian                                   ... done (168.7 sec)
   => CPCM-Hessian                                 ... done ( 78.5 sec)
   => Van der Waals-Hessian                        ... done (  2.6 sec)
   => Explicit contributions done
Dipole derivatives                                 ... done (  0.8 sec)
Mass weighting the Hessian           ... done
Calculating normal modes             ... done
Scaling frequencies                  ... done

-----------------------
VIBRATIONAL FREQUENCIES
-----------------------

Scaling factor for frequencies =  1.000000000  (already applied!)

     0:       0.00 cm**-1
     1:       0.00 cm**-1
     2:       0.00 cm**-1
     3:       0.00 cm**-1
     4:       0.00 cm**-1
     5:       0.00 cm**-1
     6:      31.18 cm**-1
     7:      47.16 cm**-1
     8:      68.53 cm**-1
     9:      72.23 cm**-1
    10:      85.03 cm**-1
    11:      95.45 cm**-1
    12:     124.88 cm**-1
    13:     151.65 cm**-1
    14:     176.11 cm**-1
    15:     185.55 cm**-1
    16:     222.40 cm**-1
    17:     273.66 cm**-1
    18:     276.44 cm**-1
    19:     305.88 cm**-1
    20:     314.90 cm**-1
    21:     343.07 cm**-1
    22:     363.70 cm**-1
    23:     399.06 cm**-1
    24:     410.65 cm**-1
    25:     415.47 cm**-1
    26:     439.84 cm**-1
    27:     445.09 cm**-1
    28:     463.41 cm**-1
    29:     478.16 cm**-1
    30:     525.68 cm**-1
    31:     531.22 cm**-1
    32:     540.55 cm**-1
    33:     562.19 cm**-1
    34:     599.69 cm**-1
    35:     623.44 cm**-1
    36:     641.39 cm**-1
    37:     642.78 cm**-1
    38:     690.74 cm**-1
    39:     705.49 cm**-1
    40:     729.03 cm**-1
    41:     738.04 cm**-1
    42:     770.54 cm**-1
    43:     787.08 cm**-1
    44:     798.43 cm**-1
    45:     832.84 cm**-1
    46:     864.76 cm**-1
    47:     871.65 cm**-1
    48:     882.39 cm**-1
    49:     897.78 cm**-1
    50:     901.26 cm**-1
    51:     911.36 cm**-1
    52:     921.60 cm**-1
    53:     950.73 cm**-1
    54:     951.75 cm**-1
    55:     968.15 cm**-1
    56:     979.10 cm**-1
    57:    1003.81 cm**-1
    58:    1009.63 cm**-1
    59:    1028.44 cm**-1
    60:    1044.70 cm**-1
    61:    1047.12 cm**-1
    62:    1061.12 cm**-1
    63:    1067.88 cm**-1
    64:    1095.90 cm**-1
    65:    1099.84 cm**-1
    66:    1108.94 cm**-1
    67:    1119.97 cm**-1
    68:    1143.06 cm**-1
    69:    1171.09 cm**-1
    70:    1190.04 cm**-1
    71:    1206.32 cm**-1
    72:    1218.72 cm**-1
    73:    1220.61 cm**-1
    74:    1228.89 cm**-1
    75:    1242.37 cm**-1
    76:    1243.89 cm**-1
    77:    1274.96 cm**-1
    78:    1279.09 cm**-1
    79:    1299.20 cm**-1
    80:    1306.30 cm**-1
    81:    1317.59 cm**-1
    82:    1336.59 cm**-1
    83:    1356.22 cm**-1
    84:    1362.24 cm**-1
    85:    1370.27 cm**-1
    86:    1376.70 cm**-1
    87:    1381.25 cm**-1
    88:    1385.17 cm**-1
    89:    1392.81 cm**-1
    90:    1394.51 cm**-1
    91:    1446.24 cm**-1
    92:    1458.98 cm**-1
    93:    1468.98 cm**-1
    94:    1472.74 cm**-1
    95:    1477.21 cm**-1
    96:    1481.98 cm**-1
    97:    1484.82 cm**-1
    98:    1496.61 cm**-1
    99:    1499.10 cm**-1
   100:    1516.86 cm**-1
   101:    1545.07 cm**-1
   102:    1583.01 cm**-1
   103:    1604.48 cm**-1
   104:    1617.74 cm**-1
   105:    1626.09 cm**-1
   106:    1646.35 cm**-1
   107:    1699.52 cm**-1
   108:    2973.83 cm**-1
   109:    2975.15 cm**-1
   110:    3010.78 cm**-1
   111:    3013.31 cm**-1
   112:    3037.08 cm**-1
   113:    3039.56 cm**-1
   114:    3074.28 cm**-1
   115:    3077.34 cm**-1
   116:    3082.49 cm**-1
   117:    3085.79 cm**-1
   118:    3087.96 cm**-1
   119:    3089.42 cm**-1
   120:    3158.69 cm**-1
   121:    3163.88 cm**-1
   122:    3171.82 cm**-1
   123:    3182.05 cm**-1
   124:    3196.53 cm**-1
   125:    3220.23 cm**-1


------------
NORMAL MODES
------------

These modes are the Cartesian displacements weighted by the diagonal matrix
M(i,i)=1/sqrt(m[i]) where m[i] is the mass of the displaced atom
Thus, these vectors are normalized but *not* orthogonal

                  0          1          2          3          4          5    
      0       0.000000   0.000000   0.000000   0.000000   0.000000   0.000000
      1       0.000000   0.000000   0.000000   0.000000   0.000000   0.000000
      2       0.000000   0.000000   0.000000   0.000000   0.000000   0.000000
      3       0.000000   0.000000   0.000000   0.000000   0.000000   0.000000
      4       0.000000   0.000000   0.000000   0.000000   0.000000   0.000000
      5       0.000000   0.000000   0.000000   0.000000   0.000000   0.000000
      6       0.000000   0.000000   0.000000   0.000000   0.000000   0.000000
      7       0.000000   0.000000   0.000000   0.000000   0.000000   0.000000
      8       0.000000   0.000000   0.000000   0.000000   0.000000   0.000000
      9       0.000000   0.000000   0.000000   0.000000   0.000000   0.000000
     10       0.000000   0.000000   0.000000   0.000000   0.000000   0.000000
     11       0.000000   0.000000   0.000000   0.000000   0.000000   0.000000
     12       0.000000   0.000000   0.000000   0.000000   0.000000   0.000000
     13       0.000000   0.000000   0.000000   0.000000   0.000000   0.000000
     14       0.000000   0.000000   0.000000   0.000000   0.000000   0.000000
     15       0.000000   0.000000   0.000000   0.000000   0.000000   0.000000
     16       0.000000   0.000000   0.000000   0.000000   0.000000   0.000000
     17       0.000000   0.000000   0.000000   0.000000   0.000000   0.000000
     18       0.000000   0.000000   0.000000   0.000000   0.000000   0.000000
     19       0.000000   0.000000   0.000000   0.000000   0.000000   0.000000
     20       0.000000   0.000000   0.000000   0.000000   0.000000   0.000000
     21       0.000000   0.000000   0.000000   0.000000   0.000000   0.000000
     22       0.000000   0.000000   0.000000   0.000000   0.000000   0.000000
     23       0.000000   0.000000   0.000000   0.000000   0.000000   0.000000
     24       0.000000   0.000000   0.000000   0.000000   0.000000   0.000000
     25       0.000000   0.000000   0.000000   0.000000   0.000000   0.000000
     26       0.000000   0.000000   0.000000   0.000000   0.000000   0.000000
     27       0.000000   0.000000   0.000000   0.000000   0.000000   0.000000
     28       0.000000   0.000000   0.000000   0.000000   0.000000   0.000000
     29       0.000000   0.000000   0.000000   0.000000   0.000000   0.000000
     30       0.000000   0.000000   0.000000   0.000000   0.000000   0.000000
     31       0.000000   0.000000   0.000000   0.000000   0.000000   0.000000
     32       0.000000   0.000000   0.000000   0.000000   0.000000   0.000000
     33       0.000000   0.000000   0.000000   0.000000   0.000000   0.000000
     34       0.000000   0.000000   0.000000   0.000000   0.000000   0.000000
     35       0.000000   0.000000   0.000000   0.000000   0.000000   0.000000
     36       0.000000   0.000000   0.000000   0.000000   0.000000   0.000000
     37       0.000000   0.000000   0.000000   0.000000   0.000000   0.000000
     38       0.000000   0.000000   0.000000   0.000000   0.000000   0.000000
     39       0.000000   0.000000   0.000000   0.000000   0.000000   0.000000
     40       0.000000   0.000000   0.000000   0.000000   0.000000   0.000000
     41       0.000000   0.000000   0.000000   0.000000   0.000000   0.000000
     42       0.000000   0.000000   0.000000   0.000000   0.000000   0.000000
     43       0.000000   0.000000   0.000000   0.000000   0.000000   0.000000
     44       0.000000   0.000000   0.000000   0.000000   0.000000   0.000000
     45       0.000000   0.000000   0.000000   0.000000   0.000000   0.000000
     46       0.000000   0.000000   0.000000   0.000000   0.000000   0.000000
     47       0.000000   0.000000   0.000000   0.000000   0.000000   0.000000
     48       0.000000   0.000000   0.000000   0.000000   0.000000   0.000000
     49       0.000000   0.000000   0.000000   0.000000   0.000000   0.000000
     50       0.000000   0.000000   0.000000   0.000000   0.000000   0.000000
     51       0.000000   0.000000   0.000000   0.000000   0.000000   0.000000
     52       0.000000   0.000000   0.000000   0.000000   0.000000   0.000000
     53       0.000000   0.000000   0.000000   0.000000   0.000000   0.000000
     54       0.000000   0.000000   0.000000   0.000000   0.000000   0.000000
     55       0.000000   0.000000   0.000000   0.000000   0.000000   0.000000
     56       0.000000   0.000000   0.000000   0.000000   0.000000   0.000000
     57       0.000000   0.000000   0.000000   0.000000   0.000000   0.000000
     58       0.000000   0.000000   0.000000   0.000000   0.000000   0.000000
     59       0.000000   0.000000   0.000000   0.000000   0.000000   0.000000
     60       0.000000   0.000000   0.000000   0.000000   0.000000   0.000000
     61       0.000000   0.000000   0.000000   0.000000   0.000000   0.000000
     62       0.000000   0.000000   0.000000   0.000000   0.000000   0.000000
     63       0.000000   0.000000   0.000000   0.000000   0.000000   0.000000
     64       0.000000   0.000000   0.000000   0.000000   0.000000   0.000000
     65       0.000000   0.000000   0.000000   0.000000   0.000000   0.000000
     66       0.000000   0.000000   0.000000   0.000000   0.000000   0.000000
     67       0.000000   0.000000   0.000000   0.000000   0.000000   0.000000
     68       0.000000   0.000000   0.000000   0.000000   0.000000   0.000000
     69       0.000000   0.000000   0.000000   0.000000   0.000000   0.000000
     70       0.000000   0.000000   0.000000   0.000000   0.000000   0.000000
     71       0.000000   0.000000   0.000000   0.000000   0.000000   0.000000
     72       0.000000   0.000000   0.000000   0.000000   0.000000   0.000000
     73       0.000000   0.000000   0.000000   0.000000   0.000000   0.000000
     74       0.000000   0.000000   0.000000   0.000000   0.000000   0.000000
     75       0.000000   0.000000   0.000000   0.000000   0.000000   0.000000
     76       0.000000   0.000000   0.000000   0.000000   0.000000   0.000000
     77       0.000000   0.000000   0.000000   0.000000   0.000000   0.000000
     78       0.000000   0.000000   0.000000   0.000000   0.000000   0.000000
     79       0.000000   0.000000   0.000000   0.000000   0.000000   0.000000
     80       0.000000   0.000000   0.000000   0.000000   0.000000   0.000000
     81       0.000000   0.000000   0.000000   0.000000   0.000000   0.000000
     82       0.000000   0.000000   0.000000   0.000000   0.000000   0.000000
     83       0.000000   0.000000   0.000000   0.000000   0.000000   0.000000
     84       0.000000   0.000000   0.000000   0.000000   0.000000   0.000000
     85       0.000000   0.000000   0.000000   0.000000   0.000000   0.000000
     86       0.000000   0.000000   0.000000   0.000000   0.000000   0.000000
     87       0.000000   0.000000   0.000000   0.000000   0.000000   0.000000
     88       0.000000   0.000000   0.000000   0.000000   0.000000   0.000000
     89       0.000000   0.000000   0.000000   0.000000   0.000000   0.000000
     90       0.000000   0.000000   0.000000   0.000000   0.000000   0.000000
     91       0.000000   0.000000   0.000000   0.000000   0.000000   0.000000
     92       0.000000   0.000000   0.000000   0.000000   0.000000   0.000000
     93       0.000000   0.000000   0.000000   0.000000   0.000000   0.000000
     94       0.000000   0.000000   0.000000   0.000000   0.000000   0.000000
     95       0.000000   0.000000   0.000000   0.000000   0.000000   0.000000
     96       0.000000   0.000000   0.000000   0.000000   0.000000   0.000000
     97       0.000000   0.000000   0.000000   0.000000   0.000000   0.000000
     98       0.000000   0.000000   0.000000   0.000000   0.000000   0.000000
     99       0.000000   0.000000   0.000000   0.000000   0.000000   0.000000
    100       0.000000   0.000000   0.000000   0.000000   0.000000   0.000000
    101       0.000000   0.000000   0.000000   0.000000   0.000000   0.000000
    102       0.000000   0.000000   0.000000   0.000000   0.000000   0.000000
    103       0.000000   0.000000   0.000000   0.000000   0.000000   0.000000
    104       0.000000   0.000000   0.000000   0.000000   0.000000   0.000000
    105       0.000000   0.000000   0.000000   0.000000   0.000000   0.000000
    106       0.000000   0.000000   0.000000   0.000000   0.000000   0.000000
    107       0.000000   0.000000   0.000000   0.000000   0.000000   0.000000
    108       0.000000   0.000000   0.000000   0.000000   0.000000   0.000000
    109       0.000000   0.000000   0.000000   0.000000   0.000000   0.000000
    110       0.000000   0.000000   0.000000   0.000000   0.000000   0.000000
    111       0.000000   0.000000   0.000000   0.000000   0.000000   0.000000
    112       0.000000   0.000000   0.000000   0.000000   0.000000   0.000000
    113       0.000000   0.000000   0.000000   0.000000   0.000000   0.000000
    114       0.000000   0.000000   0.000000   0.000000   0.000000   0.000000
    115       0.000000   0.000000   0.000000   0.000000   0.000000   0.000000
    116       0.000000   0.000000   0.000000   0.000000   0.000000   0.000000
    117       0.000000   0.000000   0.000000   0.000000   0.000000   0.000000
    118       0.000000   0.000000   0.000000   0.000000   0.000000   0.000000
    119       0.000000   0.000000   0.000000   0.000000   0.000000   0.000000
    120       0.000000   0.000000   0.000000   0.000000   0.000000   0.000000
    121       0.000000   0.000000   0.000000   0.000000   0.000000   0.000000
    122       0.000000   0.000000   0.000000   0.000000   0.000000   0.000000
    123       0.000000   0.000000   0.000000   0.000000   0.000000   0.000000
    124       0.000000   0.000000   0.000000   0.000000   0.000000   0.000000
    125       0.000000   0.000000   0.000000   0.000000   0.000000   0.000000
                  6          7          8          9         10         11    
      0       0.004664   0.000631   0.010123  -0.003242  -0.003031  -0.014790
      1       0.046791   0.016916  -0.108472   0.039085   0.001446   0.088445
      2      -0.129038  -0.118394   0.181664   0.116169   0.061502  -0.131836
      3       0.031328   0.058467  -0.057883  -0.078581  -0.046979   0.008755
      4      -0.021928   0.032484  -0.051218   0.102747  -0.002700  -0.050577
      5      -0.050479  -0.135962   0.115840   0.043166   0.065757   0.028183
      6      -0.013416   0.013982   0.052515  -0.058290  -0.014901  -0.042009
      7      -0.011550   0.015189  -0.027053   0.061134   0.004573  -0.014730
      8       0.072869  -0.078213  -0.074307  -0.094373   0.011496   0.224712
      9       0.089482   0.134780  -0.205263  -0.142505  -0.105028   0.071183
     10      -0.096783   0.042196   0.027393   0.169755  -0.000447  -0.207654
     11      -0.063289  -0.111113   0.105548   0.051399   0.050690  -0.015365
     12       0.025783   0.058153  -0.043169  -0.084920  -0.046902  -0.002990
     13      -0.004965   0.046715  -0.104038   0.111586  -0.012708  -0.024373
     14      -0.071866  -0.213751   0.216436   0.080273   0.120792   0.040563
     15      -0.011914   0.006627   0.035810  -0.043071  -0.012402  -0.013028
     16      -0.019933  -0.000617   0.018574   0.022458   0.009578  -0.010017
     17       0.080167  -0.010184  -0.078564  -0.063747  -0.007597   0.040156
     18      -0.001026   0.043185   0.058026  -0.082015  -0.027792  -0.109666
     19      -0.071932   0.012188   0.067911   0.139099   0.022276  -0.186731
     20       0.138880  -0.070941  -0.175155  -0.180981  -0.009040   0.399511
     21      -0.062758  -0.044936   0.147470  -0.031372   0.020250  -0.036152
     22       0.069358   0.024337  -0.165685  -0.037257  -0.022081   0.214930
     23       0.094547  -0.097629  -0.107366  -0.134527   0.012238   0.346682
     24      -0.003026  -0.002720   0.015067  -0.010289  -0.007723  -0.003135
     25      -0.001350  -0.006176   0.012819   0.012995   0.001447   0.005314
     26       0.011222   0.014645  -0.052004  -0.038577   0.025290  -0.015742
     27       0.010066  -0.002493  -0.006101   0.007418   0.000387   0.005248
     28       0.023272  -0.006948  -0.017495   0.037384   0.015543   0.015450
     29      -0.087165  -0.003078  -0.012223   0.013892  -0.013106  -0.020205
     30      -0.061955  -0.081674   0.198700   0.095273   0.054462  -0.169514
     31       0.123705   0.007659  -0.192513  -0.026877   0.005145   0.253859
     32      -0.127643  -0.154153   0.225699   0.131543   0.085069  -0.133392
     33       0.045607   0.040301  -0.106006  -0.043815  -0.028569   0.089180
     34       0.041015   0.033430  -0.140647   0.053004  -0.007342   0.093803
     35      -0.222876  -0.157017   0.334660   0.229810   0.092728  -0.327148
     36       0.006532  -0.022403  -0.017038   0.065908  -0.012404   0.013282
     37       0.067649  -0.027672  -0.000583   0.013239   0.090789  -0.015386
     38      -0.186612   0.045776  -0.049773   0.062668  -0.177546   0.051544
     39       0.049109  -0.016792  -0.035495   0.047541   0.085989   0.002353
     40       0.007244  -0.008210   0.008831   0.007134  -0.016769   0.012716
     41      -0.155238   0.099216  -0.091339  -0.009547  -0.041364   0.064892
     42      -0.067654  -0.046562   0.003569   0.149841  -0.204822   0.035076
     43       0.154138  -0.068210   0.030077  -0.027122   0.237635  -0.081512
     44      -0.187261   0.041184  -0.045838   0.067172  -0.183795   0.048836
     45       0.044256  -0.016562  -0.033102   0.045314   0.078310   0.004069
     46       0.061763  -0.018488  -0.025422   0.037150   0.093161   0.002152
     47      -0.286350   0.046566  -0.050673   0.149248  -0.395072   0.101770
     48      -0.001031  -0.021371  -0.017055   0.065591  -0.033098   0.019277
     49       0.006172  -0.018935   0.042840  -0.013436  -0.060047  -0.005845
     50      -0.021831   0.092147  -0.077218  -0.098537   0.193220  -0.014911
     51       0.044861  -0.029816  -0.047703   0.090018   0.069669   0.009734
     52       0.038536  -0.025372   0.024687   0.000171   0.013243  -0.014697
     53      -0.222207   0.136802  -0.125021   0.003154  -0.105153   0.123630
     54       0.122580   0.003916  -0.050309  -0.023440   0.264899  -0.026477
     55      -0.068676   0.032614  -0.027547   0.022704  -0.092772   0.078720
     56      -0.163564   0.104851  -0.096312  -0.008845  -0.048011   0.072882
     57      -0.005463  -0.009686   0.008259   0.004885  -0.008383   0.002114
     58      -0.010277  -0.009632   0.035732  -0.017717  -0.028775   0.003933
     59       0.039622   0.054363  -0.060886  -0.062696   0.084361  -0.043761
     60      -0.081992  -0.036753  -0.017633   0.162774  -0.282222   0.071207
     61       0.061361  -0.049187   0.063635   0.001850  -0.113024  -0.038380
     62      -0.016900   0.095480  -0.078511  -0.109356   0.221641  -0.018202
     63       0.039064  -0.016564  -0.025068   0.038998   0.072123   0.000552
     64      -0.036618  -0.004398   0.053293  -0.040577  -0.070789   0.005968
     65       0.025060   0.116761  -0.085651  -0.183841   0.416834  -0.044716
     66      -0.019005   0.006535   0.049529  -0.062124  -0.010987  -0.012702
     67      -0.037251  -0.002938   0.041408  -0.014567   0.015526   0.002313
     68       0.137757   0.020012  -0.088655  -0.045291  -0.055429  -0.046571
     69      -0.013813  -0.005446   0.018524  -0.022166  -0.007432  -0.002094
     70      -0.029269  -0.003296   0.046311  -0.054167  -0.018702   0.001352
     71       0.106345   0.049361  -0.033585  -0.037378   0.024874  -0.070677
     72      -0.018850   0.000854   0.035956  -0.048010  -0.004948   0.000775
     73      -0.039190  -0.003180   0.052668  -0.059076   0.003554   0.012833
     74       0.141248   0.047741  -0.055395  -0.015068  -0.056362  -0.111327
     75      -0.015622  -0.005508   0.005599  -0.020796  -0.007662  -0.007530
     76      -0.036275   0.000573   0.035766  -0.072305  -0.034195  -0.011067
     77       0.126697   0.039492   0.036675  -0.023818   0.049661  -0.038078
     78      -0.015734   0.004632   0.006576  -0.038854  -0.004990  -0.016054
     79      -0.037568   0.019577   0.022236  -0.093773  -0.018511  -0.028546
     80       0.129121  -0.013029   0.119656   0.020826  -0.020138   0.035916
     81      -0.018304   0.000766   0.037673  -0.057458  -0.002940   0.004772
     82      -0.036879  -0.000036   0.060939  -0.088604   0.007060   0.020772
     83       0.131416   0.055618  -0.038595   0.028972  -0.094645  -0.140381
     84      -0.013994   0.008104   0.030129  -0.053721  -0.002499   0.000952
     85      -0.029730   0.008772   0.046906  -0.104303  -0.006847   0.000235
     86       0.102263   0.019871   0.023145   0.050543  -0.065449  -0.074071
     87      -0.018202   0.005239  -0.018806  -0.034508  -0.002914  -0.037826
     88      -0.044020   0.045796  -0.004193  -0.102903  -0.016087  -0.061071
     89       0.153143  -0.075411   0.270170   0.026166  -0.032040   0.190157
     90      -0.005078   0.005342   0.015972  -0.029756   0.002755   0.004168
     91      -0.006451   0.006876   0.027111  -0.069226  -0.001878   0.000752
     92       0.015671  -0.000280   0.003710   0.058506  -0.040859  -0.041633
     93       0.044171   0.114383   0.078441   0.001055  -0.011399   0.002856
     94      -0.028040   0.146546   0.038407   0.047131   0.041820   0.050340
     95      -0.036214  -0.133919  -0.065178   0.014028  -0.028561  -0.043138
     96      -0.038980  -0.103952  -0.074315   0.012827   0.030933   0.020005
     97       0.051718  -0.147301  -0.037174  -0.079330  -0.036839  -0.046899
     98      -0.042313   0.113307   0.039796   0.075881  -0.004707   0.001382
     99      -0.024601  -0.120340  -0.121544   0.098068   0.045192   0.029580
    100       0.089380  -0.167501  -0.096217   0.043691  -0.026231  -0.040806
    101      -0.145713   0.111035   0.026117   0.032429   0.040305   0.041971
    102       0.025654  -0.014856  -0.064790   0.142619   0.031759   0.029675
    103       0.070333  -0.029005  -0.089708   0.182506   0.020664   0.014969
    104      -0.196170  -0.016507  -0.033373  -0.031714   0.048594   0.035566
    105       0.060214   0.103862   0.037147   0.090297   0.002913   0.015523
    106       0.010922   0.132817  -0.018394   0.181445   0.056365   0.062981
    107      -0.144103  -0.145001  -0.087484  -0.034953   0.016425  -0.006818
    108      -0.080029  -0.182787  -0.113369  -0.016613   0.044206   0.026318
    109       0.072084  -0.260982  -0.042415  -0.183168  -0.078033  -0.093695
    110      -0.004400   0.205828   0.079608   0.117760  -0.012691   0.001084
    111       0.100190   0.186246   0.082253   0.121909  -0.009106   0.013265
    112      -0.003738   0.246023  -0.008942   0.288888   0.094481   0.109138
    113      -0.187914  -0.246583  -0.138889  -0.079008   0.026965  -0.007823
    114       0.038410  -0.028591  -0.104135   0.219408   0.043147   0.038347
    115       0.103897  -0.047050  -0.141052   0.295225   0.029480   0.021076
    116      -0.281338  -0.018333  -0.041281  -0.080199   0.082419   0.064639
    117       0.072242   0.208543   0.158335  -0.033563  -0.033469  -0.006851
    118      -0.072799   0.266877   0.087818   0.049677   0.067165   0.082745
    119       0.004469  -0.227235  -0.100062   0.006771  -0.053064  -0.073626
    120      -0.023769   0.013359   0.070652  -0.092264  -0.015897  -0.025126
    121      -0.046570  -0.000500   0.045913  -0.010866   0.026949  -0.002391
    122       0.171992   0.009708  -0.110372  -0.050942  -0.094565  -0.026046
    123      -0.017618  -0.005926   0.042281  -0.069293  -0.004079   0.007179
    124      -0.035821  -0.005590   0.070680  -0.090666   0.018417   0.033758
    125       0.127101   0.079401  -0.073566   0.037963  -0.137113  -0.189145
                 12         13         14         15         16         17    
      0       0.023405  -0.029573  -0.027276  -0.015717   0.116085   0.002902
      1      -0.007720  -0.032278   0.010664  -0.072705  -0.102594  -0.028996
      2      -0.011251  -0.014147  -0.048956   0.006031   0.014026   0.017532
      3      -0.079750   0.065201  -0.020242   0.012947   0.136694   0.051038
      4      -0.102356  -0.002046  -0.072182  -0.034869  -0.071736  -0.007864
      5       0.098722  -0.048922   0.045454  -0.034344  -0.028651  -0.004385
      6       0.015652   0.025701   0.023837   0.048942   0.105759   0.033277
      7      -0.032379   0.000700  -0.004939   0.000945  -0.074397   0.015792
      8       0.046310   0.032850   0.094308  -0.047998  -0.002907   0.056537
      9      -0.240550   0.167569  -0.064296   0.000952   0.190472   0.110861
     10      -0.185742   0.019380  -0.156291   0.009561  -0.043368  -0.001500
     11       0.022184  -0.012491   0.000810  -0.020392  -0.002976   0.014222
     12      -0.076644   0.070914  -0.014608   0.029787   0.133759   0.053654
     13      -0.142387   0.003257  -0.098857  -0.072821  -0.053955  -0.003581
     14       0.284581  -0.157337   0.119419  -0.049556  -0.087200  -0.061486
     15       0.014709   0.015691   0.028333   0.000154   0.059697   0.037012
     16       0.022999   0.018158   0.043916   0.057063  -0.030102   0.042231
     17      -0.064048   0.012805  -0.080875   0.075818   0.058801  -0.092864
     18      -0.010917   0.037484  -0.029482   0.153640   0.175308  -0.019481
     19      -0.051939  -0.044134  -0.106927   0.064443  -0.051583  -0.086217
     20       0.063203   0.082903   0.196292  -0.101834  -0.017764   0.158616
     21       0.120636  -0.005291   0.110070   0.019091   0.067564   0.076165
     22      -0.025814   0.064335   0.117920  -0.096138  -0.106241   0.149362
     23       0.092642   0.053523   0.194485  -0.111296  -0.035685   0.144355
     24       0.020718  -0.006460   0.003827  -0.012308   0.075036   0.034412
     25       0.039147   0.007460   0.022037   0.069564  -0.024315   0.037465
     26      -0.137819   0.063742  -0.003423   0.014308   0.028498  -0.080351
     27       0.020831  -0.037198  -0.019748  -0.049411   0.084494  -0.002154
     28       0.069076  -0.059890  -0.018288   0.043775  -0.019910  -0.042697
     29      -0.249684   0.180979   0.034253  -0.086630  -0.048435   0.137555
     30       0.181148  -0.164162  -0.120477   0.097579   0.200232  -0.074964
     31       0.069552  -0.052261   0.108796  -0.148663  -0.175483  -0.045068
     32       0.080311  -0.076199  -0.051038   0.024088   0.021666  -0.020455
     33      -0.059152   0.031396   0.031231  -0.113025   0.039690   0.036900
     34      -0.065944  -0.007540   0.010468  -0.116585  -0.135292  -0.012537
     35       0.009761  -0.073978  -0.166656   0.094436   0.088219  -0.010951
     36      -0.022702  -0.087040  -0.022628  -0.145560   0.083250  -0.058686
     37      -0.021150   0.036125  -0.025913   0.012571  -0.039686   0.027761
     38      -0.037916  -0.032221   0.045492  -0.017125  -0.007274  -0.015938
     39       0.003646  -0.061191  -0.076568  -0.175646   0.074842  -0.040379
     40       0.052422  -0.011406   0.001231   0.091695  -0.008934   0.016278
     41       0.192675  -0.035280  -0.086103   0.032503   0.003636   0.024006
     42      -0.121704  -0.184283   0.090460  -0.167417   0.104247  -0.171593
     43      -0.201702   0.217334  -0.036495  -0.045706  -0.077590   0.158054
     44      -0.054681  -0.030736   0.053288  -0.021235  -0.007135  -0.018321
     45       0.007140  -0.057753  -0.076160  -0.166290   0.072594  -0.028769
     46       0.036501  -0.024060  -0.053297  -0.014914  -0.035398  -0.019741
     47      -0.023824  -0.196557   0.134167  -0.010757   0.025607  -0.164861
     48      -0.008525  -0.089343  -0.020942  -0.101930   0.083762  -0.036273
     49      -0.017508   0.019747   0.073897   0.138591   0.009531   0.008967
     50       0.096883   0.103406  -0.082268  -0.026651   0.001080   0.013955
     51      -0.033722  -0.084462  -0.080781  -0.218243   0.049806  -0.048036
     52      -0.040794   0.030999   0.039831   0.063286  -0.011978   0.002482
     53       0.395422  -0.125394  -0.169336   0.096161   0.011376   0.054222
     54       0.073512   0.004233  -0.152022  -0.193056   0.077798  -0.016119
     55       0.278192  -0.114222  -0.089895   0.166777  -0.000128   0.051160
     56       0.223021  -0.047541  -0.099120   0.042159   0.004968   0.028656
     57       0.008537   0.004790  -0.002226  -0.013079   0.056103   0.051628
     58       0.026979   0.040833   0.033371   0.100698   0.002315   0.049664
     59      -0.069965  -0.002391   0.037717   0.027306   0.044909  -0.159593
     60      -0.024668  -0.270786   0.050093  -0.043762   0.122328  -0.142640
     61      -0.171769  -0.035706   0.191260   0.169769   0.043003  -0.129879
     62       0.107748   0.125652  -0.097166  -0.034586  -0.005248   0.033894
     63      -0.001038  -0.041882  -0.057548  -0.149573   0.073783  -0.018036
     64       0.043363   0.080020   0.055620   0.193311  -0.015106   0.111681
     65       0.172081   0.268278  -0.185813  -0.084090  -0.044485   0.152154
     66       0.011175   0.025165   0.044566  -0.001081   0.047722   0.014716
     67       0.008124   0.052601   0.097585   0.057211  -0.008550   0.019976
     68       0.000620  -0.055191  -0.224421   0.155212   0.026720  -0.057252
     69       0.012123   0.032210   0.003156   0.009439   0.044226   0.039238
     70       0.023898   0.083512   0.019695   0.085328   0.016920   0.014867
     71      -0.046299  -0.122632   0.104963   0.077459   0.026688  -0.077721
     72       0.005814   0.022810   0.021802  -0.011043   0.010257   0.005636
     73       0.013425   0.072720   0.074829   0.070033   0.033603  -0.018088
     74      -0.002983  -0.096270  -0.093460   0.118717  -0.011582   0.010780
     75       0.013290   0.065706  -0.005963   0.063611   0.039165   0.041832
     76       0.016996   0.082123  -0.063576   0.017267   0.024182  -0.044824
     77      -0.030323  -0.225627   0.314999   0.034998   0.018466   0.059893
     78       0.008422   0.033878   0.018954   0.042945  -0.002077  -0.002284
     79       0.003641  -0.016729  -0.026486  -0.067623  -0.010706  -0.100461
     80      -0.005484  -0.016813   0.041921  -0.021759  -0.009743   0.018529
     81      -0.006843  -0.014133  -0.003711  -0.041097  -0.047132  -0.050901
     82      -0.015840   0.016513   0.039413   0.020209   0.020570  -0.114226
     83       0.081029   0.012162  -0.064768  -0.021110  -0.083002   0.156304
     84      -0.008605  -0.009288  -0.006878   0.005542  -0.079680  -0.051250
     85      -0.021211  -0.046294  -0.032004  -0.049444   0.019312  -0.086658
     86       0.081220   0.100635   0.062487  -0.122167  -0.059456   0.069324
     87       0.020653   0.048070   0.061012   0.075486   0.040974   0.073090
     88       0.007805  -0.057611   0.008271  -0.151310  -0.082595  -0.192393
     89      -0.063558   0.024845  -0.194145   0.035622   0.006450  -0.042393
     90      -0.014637  -0.037640  -0.022754   0.001397  -0.164080  -0.001403
     91      -0.029501  -0.100341  -0.062930  -0.092161  -0.008569   0.061315
     92       0.073674   0.142951   0.064685  -0.121302  -0.021617  -0.037463
     93       0.008968   0.002721  -0.007698  -0.048661  -0.233361   0.020792
     94      -0.045257  -0.115665  -0.068945  -0.049617   0.043748   0.156382
     95       0.048091   0.100965   0.049437  -0.068130   0.025397  -0.077047
     96      -0.037824  -0.063954  -0.030308   0.088496  -0.179011   0.027066
     97       0.001350  -0.065278  -0.053497  -0.139792  -0.032648   0.143583
     98       0.042755   0.104981   0.054133  -0.069900   0.011868  -0.090042
     99      -0.028253  -0.017547   0.000006   0.150224  -0.127048  -0.029356
    100       0.027458   0.023811  -0.001508  -0.082793   0.051152   0.053841
    101      -0.022884  -0.025506  -0.005649   0.005759   0.013476  -0.002314
    102       0.003632   0.059553   0.038634   0.113928  -0.114370  -0.117527
    103       0.021425   0.066909   0.032788   0.003670   0.183015  -0.048457
    104      -0.055870  -0.111434  -0.050776   0.033767  -0.014814   0.101009
    105       0.020102   0.056030   0.025328   0.002548  -0.180527  -0.035324
    106      -0.020926  -0.024842  -0.014653   0.012907   0.144052   0.082608
    107      -0.018835  -0.035311  -0.011754   0.016370   0.014707   0.000135
    108      -0.063072  -0.115394  -0.053235   0.119156  -0.197760   0.077558
    109       0.014829  -0.081826  -0.075932  -0.233129  -0.100158   0.240352
    110       0.066164   0.158199   0.080065  -0.089764   0.039404  -0.152701
    111       0.044775   0.105010   0.046780  -0.045265  -0.179406  -0.038870
    112      -0.030574  -0.009500   0.000957   0.075605   0.186837   0.077347
    113      -0.045924  -0.091543  -0.037145   0.065245   0.009428   0.004304
    114       0.016775   0.118890   0.076309   0.163358  -0.038126  -0.217375
    115       0.050087   0.171681   0.096125   0.061528   0.292516  -0.210291
    116      -0.112627  -0.240285  -0.115977   0.077181  -0.046387   0.242849
    117       0.025282   0.016855  -0.005924  -0.124719  -0.318404   0.032826
    118      -0.071187  -0.168459  -0.093481  -0.041492   0.027602   0.216938
    119       0.072776   0.147933   0.072173  -0.084986   0.027137  -0.131071
    120       0.007561   0.036213   0.069824   0.010311   0.079240  -0.005606
    121      -0.013701   0.051404   0.128476   0.048714  -0.006711   0.007820
    122       0.078673  -0.053548  -0.339075   0.182900   0.015522  -0.008147
    123      -0.019041  -0.055854  -0.028871  -0.123974  -0.061114  -0.083356
    124      -0.029256   0.006855   0.067474   0.032971   0.031241  -0.138850
    125       0.134277   0.057643  -0.162876  -0.054238  -0.112073   0.253267
                 18         19         20         21         22         23    
      0      -0.034825  -0.001319   0.028587   0.069856  -0.019003   0.118156
      1       0.076831  -0.016109  -0.033203  -0.075917  -0.035386   0.137848
      2      -0.083286  -0.015223   0.055060  -0.011118   0.049288   0.021762
      3      -0.119805  -0.019207   0.049697   0.141854  -0.035109   0.066602
      4      -0.050766  -0.019994   0.064882  -0.122319   0.073816   0.110234
      5       0.060197  -0.014416  -0.044764   0.011353  -0.051663   0.112986
      6       0.009072  -0.011168  -0.038532   0.171434  -0.084945   0.086486
      7       0.011246  -0.020037   0.029079  -0.038871   0.078760   0.089778
      8      -0.060544  -0.026997   0.065018   0.037137   0.085228   0.007129
      9      -0.345399  -0.039447   0.201463   0.140816   0.067588  -0.018444
     10      -0.153052  -0.018537   0.127583  -0.146505   0.118535   0.090067
     11      -0.041108  -0.019054   0.021195   0.001082  -0.005482   0.080645
     12      -0.113142  -0.018599   0.044643   0.152112  -0.033589   0.065426
     13      -0.110861  -0.025472   0.105934  -0.148032   0.087830   0.100283
     14       0.304666   0.003592  -0.200820   0.016478  -0.148336   0.195342
     15       0.010631  -0.036503  -0.014880   0.076183  -0.002479   0.114161
     16       0.025016  -0.009899   0.001434   0.098867   0.007011  -0.014714
     17      -0.074934   0.115487   0.023059  -0.067262  -0.104029  -0.052882
     18      -0.003503   0.075083  -0.066326   0.212275  -0.224059  -0.022997
     19       0.068482   0.054601  -0.063353  -0.090158  -0.155205   0.113038
     20      -0.123955  -0.094802   0.160528   0.097908   0.317320  -0.032786
     21       0.109948  -0.064025  -0.096212   0.253844  -0.071461   0.147101
     22      -0.084259  -0.122370   0.164741   0.005864   0.395014   0.065134
     23      -0.068291  -0.102469   0.111237   0.095542   0.256295   0.020701
     24       0.005451  -0.029131   0.005524   0.009751   0.009920   0.096306
     25      -0.006359  -0.019045   0.013967   0.073811  -0.029865  -0.024557
     26      -0.000186   0.145524  -0.053307   0.052528   0.015494  -0.001345
     27      -0.000304  -0.011429   0.007946   0.012282  -0.005418   0.110721
     28      -0.012681   0.044806   0.039601   0.064793  -0.031050   0.015473
     29      -0.014340  -0.112304  -0.121216  -0.016151  -0.061629  -0.015736
     30      -0.155017   0.085186   0.211219   0.115242   0.113569   0.048263
     31       0.258202  -0.036898  -0.184026  -0.105522  -0.171348   0.282703
     32      -0.065360   0.012458   0.074252  -0.003775   0.052494   0.049951
     33       0.073556  -0.058762  -0.090846  -0.022784  -0.075073   0.192924
     34       0.097830  -0.044427  -0.053457  -0.156094  -0.006963   0.155062
     35      -0.250277   0.033204   0.244300  -0.021479   0.234002  -0.086109
     36       0.049372  -0.027475   0.037022   0.050013  -0.042653  -0.108748
     37      -0.060412   0.010518  -0.056277   0.049200  -0.049036  -0.000460
     38       0.076847  -0.037986   0.069194   0.049329  -0.064412  -0.013307
     39      -0.000608  -0.014750  -0.029388   0.043800  -0.023697  -0.205426
     40      -0.068318   0.029556  -0.042461   0.051296  -0.047379   0.068337
     41      -0.091768   0.028635  -0.093378  -0.032967   0.027961  -0.025816
     42       0.239847  -0.063749   0.275093   0.167108  -0.151198  -0.154184
     43      -0.134100  -0.048784  -0.212356  -0.000307  -0.041031   0.008639
     44       0.087299  -0.042843   0.079719   0.055332  -0.070756  -0.015422
     45      -0.016938  -0.010443  -0.055930   0.013549   0.000130  -0.175667
     46      -0.049688   0.036506  -0.040177   0.061622  -0.036124  -0.139228
     47       0.257500  -0.038572   0.321853   0.156837  -0.148923  -0.064225
     48      -0.019747   0.036992  -0.067255   0.043561   0.022224  -0.171504
     49      -0.000771   0.038980  -0.002015   0.084766  -0.018369   0.053967
     50       0.063575  -0.051348   0.071121   0.053732  -0.032886  -0.014541
     51      -0.003819  -0.019543  -0.025669   0.033272  -0.046519  -0.181000
     52       0.021026  -0.002003   0.037930   0.100083  -0.071030   0.051643
     53      -0.284973   0.097507  -0.268178  -0.137628   0.079730   0.008009
     54      -0.028134  -0.027952  -0.052265   0.038477  -0.011972  -0.245109
     55      -0.291820   0.115186  -0.251915  -0.068352   0.021800   0.095994
     56      -0.121284   0.039941  -0.120867  -0.048107   0.036926  -0.022176
     57       0.004318  -0.028979  -0.007167  -0.032445  -0.002135   0.036056
     58      -0.010633  -0.036329   0.010033   0.046052  -0.053454  -0.025544
     59       0.085902   0.198758  -0.008036   0.153972   0.119240   0.044128
     60      -0.145175   0.276808  -0.288499   0.058166   0.207145  -0.264929
     61       0.051149   0.231560  -0.039838   0.195787   0.106593   0.082237
     62       0.072997  -0.088382   0.095721   0.044340  -0.059888  -0.006924
     63       0.021753  -0.043370   0.007624   0.048885  -0.048482  -0.171481
     64      -0.017046  -0.049235   0.021768   0.009507  -0.056779   0.135321
     65       0.140530  -0.316211   0.261277  -0.006621  -0.228509   0.062467
     66       0.015592  -0.020871  -0.015985   0.020475   0.007979   0.055076
     67       0.022582   0.030667  -0.003182   0.070892   0.018697  -0.116028
     68       0.000184  -0.041605   0.028864  -0.151655  -0.136370  -0.016033
     69       0.024588  -0.012202  -0.002709  -0.092991   0.021718  -0.004691
     70       0.019856  -0.020781   0.015016  -0.013414  -0.032035  -0.117376
     71       0.046212   0.073889  -0.021916   0.050011   0.098123   0.065849
     72       0.004290  -0.008883  -0.007751  -0.034073   0.000513   0.039898
     73       0.014651   0.017131   0.017120  -0.003797  -0.019536  -0.141620
     74       0.064045  -0.068884  -0.034603   0.026295   0.064386   0.052586
     75       0.055587   0.030886  -0.002543  -0.112674   0.052574  -0.018585
     76       0.046105   0.007765  -0.001815  -0.007136   0.032213  -0.098252
     77      -0.073747  -0.106746   0.012082  -0.136071  -0.074655  -0.064698
     78       0.036021  -0.018865  -0.008536  -0.150861   0.070582  -0.026490
     79      -0.003157  -0.078610  -0.010973  -0.024286   0.033910  -0.037640
     80      -0.013034   0.006598   0.004640  -0.014410  -0.007194  -0.038809
     81      -0.010279  -0.010405  -0.006652  -0.074722   0.012807   0.076120
     82      -0.001308  -0.005288   0.006137  -0.075784  -0.000856  -0.081390
     83       0.054293  -0.148995  -0.028745   0.129673   0.105836  -0.082481
     84      -0.001869  -0.035519  -0.008197  -0.065084   0.026143   0.037170
     85       0.001723  -0.070273  -0.011694  -0.080252   0.029153  -0.016519
     86      -0.006998   0.072226   0.011456   0.070530   0.004185  -0.066106
     87       0.061963   0.052020   0.003482  -0.235841   0.066155  -0.074101
     88      -0.061388  -0.168606  -0.023590   0.088062   0.024689   0.019299
     89       0.028157  -0.056069  -0.016210   0.011128   0.045281   0.004861
     90      -0.010886   0.035701   0.009346  -0.023119  -0.008688   0.032233
     91       0.007026   0.049068   0.005650  -0.054550  -0.006601   0.034013
     92      -0.024762   0.110765   0.021312  -0.035241  -0.043484   0.013649
     93      -0.022447   0.120314   0.028793   0.003258  -0.038998  -0.007102
     94       0.026528   0.078486   0.007646  -0.004797   0.001063   0.012252
     95      -0.018436   0.032795   0.005200  -0.072710  -0.023135   0.054869
     96      -0.005359   0.021258   0.011085   0.058550  -0.011042  -0.041407
     97       0.009474   0.152484   0.023246  -0.029985  -0.030030   0.014490
     98      -0.022618   0.034625   0.007726  -0.064663  -0.026389   0.036419
     99      -0.005120  -0.056882  -0.001580   0.082913   0.008127  -0.064539
    100       0.005355   0.064653   0.008031  -0.021669  -0.011604   0.009979
    101       0.001503   0.008552   0.001229  -0.025437  -0.003640   0.006280
    102      -0.021459  -0.065597  -0.001957   0.031893  -0.002262  -0.036282
    103       0.010201  -0.066860  -0.018493  -0.063152   0.022729   0.049672
    104       0.018182   0.030031   0.003990   0.035901   0.004916  -0.028952
    105      -0.024552   0.073368   0.021424   0.008925  -0.034383  -0.021294
    106       0.027002   0.011363  -0.005146  -0.011243   0.013197   0.003331
    107       0.004125  -0.023392  -0.005332  -0.012376   0.009927   0.015232
    108       0.001973   0.039696   0.015245   0.099068  -0.013307  -0.079904
    109       0.008819   0.290221   0.046884  -0.033942  -0.064235   0.018364
    110      -0.030077   0.000273   0.000789  -0.105466  -0.020277   0.075456
    111      -0.031653   0.127935   0.030712  -0.014632  -0.053927  -0.006719
    112       0.032278  -0.009611  -0.007662   0.023558   0.015948  -0.041600
    113       0.011574  -0.082807  -0.015495   0.011362   0.031371   0.002157
    114      -0.026179  -0.160784  -0.019148   0.008318   0.015975  -0.015896
    115      -0.000834  -0.201364  -0.042540  -0.108706   0.045497   0.086493
    116       0.042616   0.062830   0.008248   0.105085   0.014821  -0.073385
    117      -0.037807   0.213802   0.049761  -0.000209  -0.074997  -0.021442
    118       0.034231   0.103931   0.012167   0.030270   0.001068  -0.012444
    119      -0.028160   0.019655   0.003606  -0.101639  -0.027759   0.074674
    120       0.034862  -0.017716  -0.020558  -0.026348   0.031925  -0.000578
    121       0.020523   0.066116  -0.018534   0.104102   0.042708  -0.102707
    122       0.001367  -0.167019   0.084706  -0.249651  -0.228452  -0.048131
    123      -0.025033  -0.026350  -0.014788  -0.121828   0.036959   0.121603
    124      -0.007197   0.036726   0.009938  -0.085479  -0.015902  -0.066611
    125       0.079451  -0.301750  -0.041470   0.172243   0.156355  -0.144047
                 24         25         26         27         28         29    
      0       0.041600  -0.088377  -0.026449   0.111301   0.047451   0.044568
      1       0.037328  -0.072644   0.025919  -0.003079  -0.042286  -0.122205
      2      -0.000301   0.001864   0.000336   0.015132  -0.030044  -0.053033
      3      -0.007005  -0.000360   0.054553   0.020676  -0.124504  -0.094007
      4       0.031938  -0.052746  -0.011718  -0.012408   0.019787  -0.125968
      5       0.019247  -0.040116   0.026932   0.002485  -0.062285  -0.117735
      6      -0.036859   0.075536   0.028512  -0.110240  -0.040608  -0.096644
      7      -0.020314   0.066957  -0.048268  -0.139712   0.113423  -0.069348
      8      -0.013604   0.027773   0.000210  -0.006547  -0.008611  -0.022538
      9      -0.007719  -0.020622   0.124333   0.108338  -0.312316  -0.198276
     10       0.023561  -0.035504   0.004716  -0.040304  -0.026439  -0.222061
     11       0.015767  -0.038798   0.051616   0.015400  -0.129338  -0.181433
     12      -0.023932   0.038814   0.056454  -0.045882  -0.116089  -0.131849
     13       0.070943  -0.146929  -0.000960   0.153580  -0.040296  -0.072335
     14       0.030047  -0.041958  -0.060879  -0.032643   0.158411   0.063673
     15      -0.016656   0.046203  -0.021308  -0.054040   0.019404  -0.090796
     16      -0.060122   0.130199  -0.005692  -0.132651   0.021039   0.023818
     17       0.054204  -0.130552   0.104776  -0.136945   0.051488  -0.004079
     18      -0.031517   0.045866   0.103739  -0.232221  -0.010200  -0.005875
     19       0.040982  -0.078931   0.065899  -0.207266   0.043536  -0.162780
     20      -0.078585   0.180086  -0.111760   0.047412   0.072451   0.090369
     21      -0.074524   0.161783  -0.008472  -0.079187  -0.090432  -0.124817
     22      -0.089689   0.234056  -0.194610  -0.022023   0.189211   0.035868
     23      -0.065816   0.151667  -0.091531   0.066707   0.010516   0.019625
     24       0.018766  -0.020246  -0.072323   0.004676   0.121030   0.020503
     25      -0.050325   0.108313   0.000572  -0.109328  -0.007376   0.055599
     26       0.037646  -0.103627   0.096669  -0.055281   0.068058   0.032349
     27       0.046735  -0.090247  -0.051431   0.100678   0.084976   0.020207
     28      -0.013954   0.009592   0.104695  -0.057753  -0.139617   0.039669
     29      -0.018994   0.051294  -0.072531   0.077672   0.007278   0.063864
     30       0.023600  -0.062013   0.008952   0.063493   0.056262   0.128242
     31       0.081226  -0.159677   0.043875   0.011045  -0.088009  -0.289571
     32       0.009565  -0.021671   0.022076   0.001717  -0.043769  -0.082991
     33       0.073897  -0.136847  -0.090223   0.144550   0.124305  -0.042591
     34       0.054129  -0.091186  -0.041555   0.014988   0.065789  -0.132076
     35      -0.022545   0.050778  -0.039483  -0.003798   0.088028   0.104766
     36       0.005828  -0.023624  -0.027121   0.131111   0.018516   0.028713
     37      -0.019882   0.024466   0.074382   0.019042  -0.159675   0.105247
     38      -0.015694   0.023772   0.041820  -0.016442  -0.079194   0.065134
     39      -0.030561   0.051187  -0.007840   0.042227  -0.020705   0.000402
     40       0.027315  -0.071880   0.011043   0.185703  -0.042756   0.172007
     41      -0.004193   0.012960  -0.014712  -0.012964   0.013810  -0.033280
     42       0.009140  -0.061054   0.048914   0.243472  -0.093275   0.196016
     43      -0.031871   0.067381  -0.001607   0.045259  -0.111798   0.089123
     44      -0.015911   0.023062   0.043085  -0.008212  -0.082654   0.073743
     45      -0.020487   0.039260  -0.039312   0.032429   0.038844  -0.056908
     46      -0.058214   0.097135   0.113213  -0.092507  -0.193988   0.049571
     47      -0.008415  -0.022495   0.129987   0.058684  -0.177170   0.190596
     48      -0.037593   0.078253  -0.035669  -0.067089   0.097292  -0.010053
     49       0.013174  -0.026881  -0.048008   0.057460   0.148597   0.124358
     50      -0.004755   0.009320  -0.018340   0.001240   0.064754   0.041094
     51      -0.043188   0.066620   0.087218  -0.002895  -0.229436   0.002275
     52       0.007270  -0.029507   0.023109   0.090250  -0.017221   0.164385
     53       0.039851  -0.079792  -0.045377   0.197768  -0.030920  -0.013383
     54      -0.030610   0.053632  -0.042380   0.073842   0.037805  -0.014101
     55       0.070078  -0.159721  -0.026029   0.388775  -0.079838   0.177351
     56       0.001736   0.000607  -0.019871   0.015981   0.009462  -0.031139
     57       0.006959   0.002806  -0.041420  -0.064519   0.087103   0.061814
     58      -0.002444   0.009358  -0.052271   0.024159   0.103297   0.051340
     59      -0.001005  -0.011412   0.023594  -0.009009   0.074433   0.005393
     60      -0.073523   0.152165  -0.028625  -0.211585   0.172127  -0.203053
     61       0.004665  -0.019666  -0.019600   0.001292   0.226590   0.092510
     62      -0.000526   0.001334  -0.020383   0.018987   0.050596   0.062267
     63      -0.025290   0.045395  -0.026727   0.034512   0.031448   0.060005
     64       0.021448  -0.022929  -0.078835  -0.022746   0.184540   0.145162
     65       0.031392  -0.062133  -0.027109   0.152549  -0.048175   0.214175
     66       0.006521  -0.011845   0.011961   0.000103  -0.028583  -0.128114
     67      -0.018648   0.023557   0.042980  -0.046242  -0.019208  -0.034376
     68      -0.026179   0.094178  -0.111260  -0.080832   0.049048  -0.037063
     69       0.017133  -0.023606  -0.000479  -0.063502   0.015566   0.010477
     70       0.019882  -0.048262  -0.019426   0.061894   0.062456  -0.087350
     71      -0.026574   0.075088  -0.089438   0.116066  -0.112236   0.006005
     72      -0.000556   0.001594   0.034825  -0.071745  -0.019828  -0.065239
     73       0.024516  -0.056749  -0.015092   0.043882   0.047581  -0.105280
     74      -0.047169   0.124536  -0.105599   0.134979  -0.111489  -0.000373
     75       0.016904  -0.019904  -0.009875  -0.043940  -0.033238   0.070943
     76       0.005423  -0.014516  -0.034037   0.122008  -0.039013  -0.194882
     77      -0.000984  -0.022122   0.064026   0.001844   0.071817  -0.046192
     78       0.033930  -0.032447   0.021799  -0.075264  -0.067060   0.157262
     79       0.009701  -0.007999   0.035328   0.026304  -0.009806  -0.029371
     80       0.059093  -0.055549  -0.132198  -0.070753  -0.101699  -0.005438
     81      -0.008776   0.030275   0.034761  -0.077573  -0.061392   0.026080
     82       0.019138  -0.009147  -0.086913   0.059793  -0.033678   0.001160
     83       0.030022  -0.109139   0.189343   0.015932   0.062671  -0.012918
     84      -0.006918   0.018147   0.051888  -0.046265  -0.025320   0.071855
     85      -0.025779   0.026410   0.061291   0.066126   0.010194   0.002612
     86       0.102320  -0.124883  -0.167821  -0.115422  -0.121986  -0.021941
     87       0.003649  -0.021850   0.038907   0.008771  -0.102501   0.070076
     88       0.086123  -0.051280  -0.073954  -0.145756  -0.012475   0.121529
     89       0.000264  -0.005799   0.052215  -0.009297   0.018027   0.045033
     90      -0.050135   0.048364   0.069746   0.030284   0.018968   0.020929
     91      -0.079535   0.060085   0.084806   0.084243   0.036560  -0.015970
     92      -0.012670   0.025992  -0.037901   0.001563   0.020326   0.015302
     93      -0.119938  -0.026256  -0.012951   0.038765   0.028447   0.002970
     94      -0.134608  -0.105503  -0.036222  -0.049863  -0.013196   0.028781
     95       0.050890   0.143106   0.072217   0.042252   0.037194   0.026476
     96       0.087667   0.036092   0.002110   0.035422   0.017856  -0.024100
     97       0.090741   0.108436   0.034604   0.040675   0.033366   0.009258
     98      -0.152886   0.002366   0.011934   0.046092   0.032105   0.004047
     99      -0.031154  -0.103844  -0.062880  -0.010145  -0.013351  -0.031948
    100      -0.126377  -0.085094  -0.052404  -0.031250  -0.004535   0.020226
    101       0.072039   0.090718   0.046569   0.051219   0.017039  -0.013508
    102      -0.016672  -0.000131   0.006368   0.063217   0.017622  -0.046309
    103      -0.037451   0.018631   0.051211  -0.017028  -0.010100   0.027840
    104       0.048782  -0.036208  -0.042946  -0.034619  -0.019420   0.001685
    105       0.075726   0.086620   0.011674   0.062560   0.032548  -0.015609
    106       0.179380   0.072001   0.008368  -0.038646  -0.019252   0.018209
    107      -0.127642  -0.070312  -0.001023  -0.017726  -0.007963   0.017301
    108       0.240669   0.065755  -0.039613   0.020576   0.003601  -0.038612
    109       0.278953   0.226775   0.033006   0.025016   0.055241   0.043142
    110      -0.329430  -0.041346   0.053078   0.061992   0.042958   0.015023
    111       0.166106   0.168272   0.018255   0.063623   0.045304   0.003843
    112       0.382945   0.124543  -0.034031  -0.049742  -0.034178  -0.006576
    113      -0.245995  -0.165927  -0.005035  -0.016741  -0.020409  -0.002954
    114      -0.074425  -0.011673   0.034328   0.065189   0.013642  -0.045135
    115      -0.138535   0.009617   0.098469  -0.004872  -0.010632   0.030688
    116       0.168950  -0.070093  -0.092909  -0.090272  -0.047264  -0.000268
    117      -0.256763  -0.089048  -0.070121   0.066577   0.054232  -0.008751
    118      -0.280388  -0.281216  -0.145982  -0.129424  -0.042076   0.048773
    119       0.161534   0.287527   0.159600   0.113622   0.065816   0.008400
    120       0.046119  -0.096153  -0.020227   0.151020  -0.035419  -0.209265
    121      -0.013452   0.002767   0.078873  -0.042644  -0.041354  -0.015648
    122      -0.056220   0.192345  -0.229652  -0.137513   0.130640  -0.084882
    123       0.007042   0.042311   0.026459  -0.124531  -0.125580   0.106784
    124       0.025222   0.013812  -0.204264   0.061281  -0.106234  -0.005340
    125       0.001959  -0.195197   0.628275   0.019936   0.344134  -0.011498
                 30         31         32         33         34         35    
      0      -0.096883  -0.198562  -0.099700   0.059417  -0.020708  -0.043235
      1      -0.027102   0.006117   0.008566  -0.042081  -0.022500   0.005701
      2      -0.007948   0.041438   0.015914  -0.036976  -0.004780  -0.006262
      3      -0.073274  -0.006221   0.001572  -0.088407   0.054312  -0.044879
      4       0.009028   0.029453   0.023540  -0.019812  -0.014394   0.001863
      5      -0.046873   0.008484   0.018663  -0.103138   0.014428  -0.026026
      6       0.016347   0.042371   0.039848   0.011497   0.173869  -0.059486
      7       0.086421   0.030819   0.048561   0.080349   0.164441  -0.051734
      8       0.014142  -0.000108   0.020356  -0.012387   0.010856  -0.007087
      9      -0.146224   0.090506   0.062410  -0.401005  -0.113804  -0.030719
     10       0.028314   0.148709   0.089526  -0.132095  -0.009794  -0.003645
     11      -0.057727   0.080483   0.060690  -0.228989  -0.029259  -0.023993
     12      -0.025762   0.057727   0.044046  -0.080753   0.130062  -0.053139
     13      -0.114734  -0.090143  -0.056580  -0.109548  -0.216029   0.019706
     14      -0.000601  -0.182823  -0.096031   0.270356   0.141099  -0.038451
     15       0.032271   0.094389   0.022136   0.036159   0.058064   0.039847
     16      -0.003251  -0.060538  -0.003373   0.017356   0.074305  -0.108588
     17       0.159888  -0.097174   0.109608   0.004315   0.027152   0.032262
     18       0.094042  -0.099607   0.091464  -0.011129   0.227747  -0.102226
     19       0.086244  -0.022255   0.113893  -0.117593   0.144416  -0.054879
     20       0.024972   0.037069  -0.043330   0.197866   0.042973  -0.011883
     21      -0.074589   0.084647   0.003344  -0.035866   0.198187  -0.113064
     22       0.064296   0.110053  -0.048423   0.318480   0.153663  -0.039661
     23      -0.033933   0.060413  -0.044543   0.093655   0.018225  -0.023049
     24       0.001216  -0.058230  -0.009760  -0.000309   0.014825   0.013549
     25      -0.018246  -0.044574  -0.018218  -0.032144   0.011057   0.009615
     26       0.097137  -0.030647   0.038987   0.073421   0.068428  -0.017263
     27      -0.038017  -0.104777  -0.044410   0.031477  -0.007452  -0.028052
     28      -0.050385  -0.052945  -0.049923   0.036961  -0.032817   0.054731
     29      -0.030319  -0.008868  -0.034821   0.032336  -0.004585  -0.025222
     30      -0.068474  -0.226689  -0.128794   0.163990  -0.030937   0.009078
     31      -0.083408   0.027917   0.057170  -0.249337  -0.024191  -0.042693
     32      -0.018976   0.034709   0.020649  -0.069757  -0.010602  -0.003620
     33      -0.080166  -0.164291  -0.051467  -0.027157  -0.008985  -0.091129
     34       0.015067   0.013807   0.028335  -0.024357  -0.019873  -0.009711
     35       0.064296  -0.011124  -0.033225   0.184759  -0.017456   0.047151
     36       0.059438   0.094627   0.046703   0.003298   0.032464  -0.064158
     37      -0.058905  -0.007577  -0.075605   0.087391  -0.043707   0.086701
     38      -0.033937  -0.045431  -0.044320   0.041471  -0.035735   0.068611
     39       0.032035   0.047678   0.027934  -0.000615  -0.002418  -0.003193
     40       0.048442   0.160834   0.002674   0.058374   0.036964   0.003545
     41      -0.016172  -0.027894  -0.008055  -0.022956  -0.027877   0.041302
     42       0.185839   0.318787   0.125978   0.090815   0.149711  -0.213575
     43      -0.102037  -0.049946  -0.110692   0.096515  -0.063035   0.081979
     44      -0.025692  -0.030277  -0.038665   0.046984  -0.026573   0.054170
     45       0.018993   0.011032   0.029268  -0.046518  -0.022831   0.012974
     46      -0.037785  -0.001238  -0.041741   0.039884  -0.061605   0.127814
     47       0.101710   0.171089   0.052760   0.092409   0.074981  -0.061422
     48       0.010817  -0.002323   0.004384  -0.091339  -0.027639   0.106395
     49       0.033697   0.092918  -0.007980  -0.112917  -0.019725   0.157672
     50       0.003814   0.029314  -0.015001  -0.068615  -0.021645   0.093970
     51      -0.053365  -0.067739  -0.043413   0.163468  -0.030330  -0.035576
     52      -0.016560   0.063903  -0.062334  -0.011850  -0.052403   0.200832
     53       0.131753   0.192771   0.137703   0.121242   0.167517  -0.381860
     54       0.070199   0.120270   0.061388  -0.052332   0.018381  -0.015637
     55       0.198379   0.382366   0.154637   0.197427   0.234902  -0.427147
     56       0.004648   0.004289   0.012513  -0.004311  -0.000315  -0.017516
     57       0.031096  -0.089142   0.017434  -0.012821  -0.014735   0.040969
     58       0.057653   0.006178   0.043844  -0.095914  -0.016143   0.081550
     59      -0.133184   0.135256  -0.139739   0.009360   0.007799  -0.044924
     60      -0.223742  -0.022745  -0.184350  -0.169298  -0.142504   0.216550
     61      -0.145137   0.210438  -0.181099  -0.113092  -0.042962   0.119056
     62       0.039627   0.022397   0.016019  -0.058871  -0.008601   0.083136
     63       0.094930   0.055068   0.075551  -0.036857   0.027543   0.023537
     64       0.103586  -0.060304   0.055358  -0.144967  -0.038368   0.234454
     65       0.262278   0.007749   0.205458   0.025126   0.090213  -0.016327
     66       0.055410   0.099090   0.037915   0.069488  -0.138326   0.062745
     67       0.037224  -0.111145   0.052357   0.027786  -0.152771  -0.156615
     68      -0.086828   0.080678  -0.087909   0.058230  -0.031291  -0.068306
     69       0.000812  -0.040724  -0.000420   0.048987  -0.086579  -0.020619
     70      -0.012435   0.026467  -0.007611   0.001201  -0.096949  -0.040898
     71       0.028154  -0.060815   0.099365  -0.017985  -0.064710  -0.005872
     72       0.043236   0.076045  -0.009189   0.092971  -0.145713   0.056793
     73      -0.042144   0.023542  -0.007336   0.001930  -0.130002  -0.126608
     74       0.089550  -0.103049   0.145914  -0.026929  -0.067263   0.020250
     75      -0.008644  -0.015570   0.019610  -0.013232  -0.071104  -0.052646
     76       0.023996  -0.054391  -0.031845   0.108070   0.026508   0.130262
     77      -0.044982   0.008385   0.003381   0.046743   0.010840   0.026625
     78      -0.063874   0.017370   0.037214  -0.061960   0.032500  -0.070998
     79      -0.036050  -0.032672   0.009022   0.035273   0.141114   0.090747
     80       0.093128  -0.005764  -0.130827  -0.018905   0.046126   0.014527
     81       0.054809   0.074844  -0.019687   0.046776  -0.060142   0.106787
     82      -0.044940   0.000035   0.011290  -0.073098   0.061862  -0.077026
     83      -0.011327   0.016246  -0.018219  -0.020475   0.006396  -0.019509
     84       0.009140   0.062033   0.015878  -0.008677  -0.099182   0.003496
     85      -0.039159  -0.027635   0.008953  -0.010236   0.164447   0.056321
     86       0.108820   0.018225  -0.169785  -0.018183   0.037710   0.006944
     87      -0.037549   0.002337  -0.030654  -0.042572   0.194986   0.031028
     88      -0.027525  -0.014527   0.037982  -0.020882  -0.054049  -0.065193
     89      -0.048336  -0.003490   0.051001  -0.003549   0.006090  -0.013450
     90       0.089124   0.011667  -0.084230  -0.034618  -0.135357  -0.051530
     91       0.128391  -0.048750  -0.169268  -0.056339   0.037352  -0.042460
     92      -0.123718   0.007651   0.160150   0.041543  -0.006400   0.038856
     93      -0.012031  -0.014539   0.010607  -0.014833  -0.015921  -0.035994
     94      -0.005374   0.019408   0.018258  -0.000068  -0.093316  -0.016149
     95      -0.005516   0.009787   0.040136   0.000562  -0.118176  -0.010274
     96      -0.003406  -0.014866  -0.005001   0.000039  -0.022084  -0.000831
     97       0.000872  -0.018037  -0.007836  -0.020803   0.025008  -0.032984
     98      -0.027854  -0.024416   0.040418   0.002453   0.028366   0.012421
     99      -0.044949  -0.006375   0.036401   0.023039   0.039347   0.037330
    100      -0.073959   0.003543   0.088926   0.016224   0.075895   0.016645
    101       0.052069  -0.030578  -0.079732  -0.031747   0.091574  -0.030780
    102       0.029582  -0.045126  -0.066263  -0.015883   0.109498  -0.001777
    103       0.073888   0.018462  -0.073002  -0.025146  -0.074813  -0.038532
    104      -0.044527   0.013338   0.049901   0.017196   0.024730   0.020219
    105      -0.030276  -0.022350   0.025867  -0.005588   0.055429  -0.016096
    106      -0.023296   0.031064   0.040581   0.016311  -0.046538   0.015803
    107       0.034403   0.009086  -0.036061  -0.018085  -0.036354  -0.033601
    108      -0.077648  -0.014204   0.073593   0.032434   0.068178   0.050647
    109      -0.144156   0.018999   0.194571   0.031482  -0.051069   0.010890
    110       0.064130  -0.029165  -0.062013  -0.035910  -0.054156  -0.043723
    111      -0.111136  -0.001100   0.150081   0.027389  -0.003096   0.018501
    112      -0.146105   0.032322   0.180089   0.073543   0.102840   0.116333
    113       0.134819  -0.015695  -0.186817  -0.060023   0.018568  -0.081014
    114       0.069575  -0.041687  -0.105319  -0.020340   0.068183   0.003657
    115       0.135344   0.018684  -0.133789  -0.035877  -0.120354  -0.035959
    116      -0.082911   0.041471   0.095573   0.043159  -0.045234   0.044800
    117      -0.134395  -0.042284   0.151397   0.021447   0.076483   0.021151
    118      -0.157957   0.054320   0.217671   0.062828  -0.080100   0.060256
    119       0.111395  -0.023814  -0.114574  -0.049517  -0.120655  -0.070480
    120       0.059818   0.119876   0.078074   0.072552  -0.319117   0.075035
    121       0.120170  -0.179443   0.137134   0.021994  -0.129559  -0.131280
    122      -0.379961   0.312039  -0.394133   0.077658  -0.057096  -0.174023
    123       0.076745   0.051459  -0.066131   0.037175   0.131714   0.226214
    124       0.017654  -0.022334  -0.010784  -0.089037   0.044225  -0.081390
    125      -0.247059   0.106245   0.074227   0.043633   0.033735  -0.026386
                 36         37         38         39         40         41    
      0      -0.035828   0.080228   0.110511  -0.069471  -0.003484  -0.018582
      1      -0.015405   0.008421  -0.015271  -0.001273   0.000218  -0.003310
      2       0.013170  -0.019189  -0.020925  -0.013465   0.000889  -0.003708
      3       0.022503   0.016742  -0.001321  -0.041342  -0.008004   0.045776
      4      -0.022163   0.016917   0.004161   0.025930  -0.000238   0.001366
      5       0.038095  -0.024511  -0.001924  -0.048943  -0.001485   0.004141
      6      -0.014440   0.076769  -0.039854   0.037410  -0.010898   0.083722
      7      -0.018772   0.079552   0.007129   0.055377  -0.010285   0.078558
      8       0.015150  -0.010872   0.034441   0.023069   0.000640  -0.002600
      9       0.227377  -0.273461  -0.018038  -0.231286   0.016403  -0.123287
     10       0.041518  -0.070097  -0.080056  -0.017621   0.004803  -0.015352
     11       0.117008  -0.135563  -0.038448  -0.115271   0.007015  -0.047552
     12       0.017653   0.035572  -0.046823   0.013806  -0.012708   0.099261
     13       0.033896  -0.086670   0.099505  -0.141384   0.015118  -0.151957
     14      -0.194372   0.299232   0.090375   0.130409  -0.025632   0.149307
     15      -0.060490   0.055358  -0.068871   0.073643  -0.000365   0.017848
     16       0.091578  -0.048127   0.090190  -0.131246   0.003401  -0.056670
     17      -0.014182   0.021695   0.135292   0.200538  -0.000788   0.025807
     18       0.072121   0.026454   0.150557   0.096287  -0.008140   0.060948
     19       0.099338  -0.037007   0.163852   0.108767  -0.004702   0.045751
     20      -0.099246   0.108647  -0.106608  -0.027354  -0.005164   0.030501
     21       0.042464   0.030706  -0.127286  -0.159769  -0.008093   0.043031
     22      -0.174506   0.220904  -0.197633  -0.022075  -0.016144   0.109618
     23      -0.044094   0.046204  -0.111377  -0.098215  -0.001570  -0.000674
     24       0.024561  -0.029575   0.004594   0.060440   0.004169  -0.002315
     25       0.046258  -0.037994   0.120072   0.043790   0.003962  -0.032281
     26      -0.043156   0.065681  -0.219608  -0.307560  -0.001293  -0.029407
     27      -0.002777   0.018297   0.034278  -0.018582   0.001133  -0.012719
     28      -0.038247   0.018091  -0.060163  -0.006907   0.000736  -0.000901
     29       0.016013  -0.007664   0.095935   0.055103   0.000337  -0.005679
     30      -0.108171   0.138768   0.065649  -0.019726  -0.004257  -0.003451
     31       0.096870  -0.100937  -0.048863  -0.147438   0.005415  -0.045406
     32       0.023213  -0.032715  -0.047623  -0.047771   0.002261  -0.012982
     33       0.032851   0.016952   0.139727  -0.106196   0.000847  -0.048760
     34      -0.009796   0.002702   0.021876   0.028533   0.003072  -0.020186
     35      -0.109099   0.094636   0.012769   0.126498  -0.000856   0.014629
     36       0.027944  -0.007790   0.045063  -0.025305  -0.001947   0.000206
     37      -0.063586   0.022804  -0.099291   0.085005   0.000352   0.029820
     38      -0.051187   0.027976  -0.056103   0.055648  -0.000372   0.020632
     39      -0.018948   0.021698  -0.009696   0.009892  -0.002571   0.018311
     40       0.033964  -0.046400  -0.019624   0.015451   0.000505   0.004572
     41      -0.031792   0.027004  -0.016615   0.010502  -0.002824   0.018466
     42       0.152348  -0.121079   0.082593  -0.065342   0.005299  -0.046351
     43      -0.068200   0.034263  -0.033379   0.122739  -0.000441   0.030166
     44      -0.039169   0.018311  -0.045479   0.051610   0.000163   0.015659
     45      -0.034082   0.045107   0.016501  -0.004194  -0.005507   0.023930
     46      -0.086146   0.035954  -0.135723   0.079985  -0.001172   0.039549
     47       0.065339  -0.078611  -0.041346  -0.007874   0.005836  -0.022643
     48      -0.003839  -0.007375  -0.009945  -0.018483  -0.000212  -0.007535
     49       0.019780  -0.035803   0.003230  -0.032717  -0.002976   0.000615
     50      -0.002171  -0.005540   0.003982  -0.019825  -0.002220   0.002531
     51      -0.094328   0.067703  -0.127352   0.132449   0.001584   0.049609
     52      -0.063842   0.023394  -0.092735   0.042480  -0.006799   0.052733
     53       0.185612  -0.129559   0.145640  -0.054318   0.012842  -0.087518
     54       0.015444   0.003182   0.039094  -0.040293  -0.005254   0.013359
     55       0.259045  -0.210166   0.146782  -0.049654   0.016783  -0.105037
     56      -0.000495   0.004284   0.006650   0.000756  -0.000609   0.003239
     57       0.064032  -0.102458  -0.055679   0.018436   0.008791  -0.027745
     58      -0.039058   0.046568   0.005303  -0.009192  -0.004478   0.016911
     59       0.055166  -0.056574   0.025696   0.000282   0.005418  -0.023766
     60      -0.110910   0.093414  -0.034967  -0.015346  -0.011662   0.056855
     61       0.066007  -0.089889   0.039697  -0.042448   0.002856  -0.031326
     62       0.005518  -0.012321   0.002869  -0.019573  -0.001290  -0.002320
     63       0.022645  -0.022406   0.000821  -0.012188   0.002263  -0.018361
     64       0.039556  -0.078898  -0.021188  -0.026550   0.001068  -0.020004
     65       0.078362  -0.079077   0.005575  -0.009471   0.006533  -0.040262
     66      -0.108237   0.017380  -0.061466   0.097328   0.013451  -0.077099
     67       0.048239  -0.093412   0.108588  -0.090898   0.019935  -0.159780
     68       0.008126  -0.023675  -0.000831  -0.029938   0.005037  -0.042758
     69       0.067758  -0.145477  -0.132223   0.002744   0.008508  -0.011793
     70      -0.058851   0.041943  -0.097652  -0.057108  -0.004480   0.037015
     71       0.026822  -0.061523   0.155487   0.323565  -0.002729   0.057753
     72      -0.006293  -0.081536   0.055505   0.013523   0.014866  -0.116015
     73      -0.094186   0.065326  -0.022503   0.117431   0.007086  -0.004290
     74      -0.071443   0.053517  -0.132327  -0.208903   0.002154  -0.049847
     75       0.033820  -0.092372  -0.135054   0.068346   0.003796   0.030434
     76       0.143039  -0.113537   0.048795  -0.064893  -0.032410   0.165715
     77       0.032769  -0.036072  -0.043078  -0.068332  -0.009621   0.052184
     78      -0.010744   0.016064  -0.064396   0.038045  -0.008745   0.076345
     79       0.085501  -0.035383   0.056770  -0.026321  -0.008782   0.029316
     80       0.037598   0.029070  -0.019234  -0.079802   0.002631  -0.042374
     81      -0.018157   0.003551   0.189372  -0.106403   0.012571  -0.153619
     82      -0.169693   0.240385   0.055489   0.021628   0.012071  -0.081315
     83      -0.041219   0.065592   0.064034   0.046903   0.006883  -0.044609
     84      -0.072908   0.072342   0.152059  -0.087269   0.001077  -0.051266
     85      -0.007593   0.054304   0.060519  -0.012694   0.017880  -0.127625
     86       0.010366   0.036580   0.054384   0.022218   0.001615  -0.018755
     87       0.039096   0.053541   0.028639  -0.023809  -0.009675   0.041126
     88       0.039683  -0.075940  -0.120339   0.033519  -0.007869   0.080375
     89       0.012274  -0.025678  -0.017191   0.033868  -0.005222   0.042491
     90       0.018901   0.071912   0.073371  -0.070902   0.024620   0.136587
     91       0.064296   0.005485  -0.106567   0.084740   0.093108  -0.050697
     92       0.083630   0.065359  -0.022657   0.014014  -0.048867  -0.055317
     93      -0.062498  -0.037958   0.024803  -0.037709  -0.045000   0.120156
     94       0.146721   0.137919  -0.035336   0.028029  -0.041212   0.025909
     95       0.120263   0.140847   0.032063  -0.058516   0.021111   0.101653
     96       0.169575   0.131226  -0.073743   0.063881  -0.033306  -0.045738
     97      -0.024275  -0.042765  -0.086888   0.074358  -0.059404  -0.065831
     98       0.092304   0.039268  -0.101262   0.065358   0.085392  -0.109841
     99       0.078141   0.059593  -0.006359   0.010232   0.065445  -0.028196
    100      -0.177587  -0.164143   0.011733  -0.021491   0.104500  -0.036258
    101      -0.141154  -0.160111  -0.071268   0.069351  -0.060902  -0.101014
    102      -0.001141  -0.056167  -0.101417   0.098336  -0.021730  -0.124417
    103      -0.045316  -0.005943   0.053905  -0.039865  -0.087616   0.095145
    104      -0.078809  -0.051255   0.058648  -0.049402   0.046311   0.027475
    105      -0.180077  -0.144465   0.064302  -0.076626   0.043096   0.150841
    106       0.014482   0.045313   0.057317  -0.046727   0.095841   0.067877
    107      -0.112110  -0.061981   0.079958  -0.072731  -0.111877   0.119441
    108       0.104713   0.053346  -0.064717   0.063536  -0.203676  -0.204627
    109       0.050304   0.056949  -0.038647   0.025849  -0.353084  -0.181128
    110       0.150857   0.107133  -0.116972   0.071841   0.291385   0.059857
    111      -0.145488  -0.072659   0.151378  -0.177818  -0.125624   0.125939
    112      -0.077996  -0.058251   0.075699  -0.053459  -0.124854  -0.310221
    113      -0.144782  -0.135773  -0.019246   0.040509   0.094756   0.181974
    114       0.098651   0.034628  -0.104035   0.107781  -0.238882  -0.240829
    115       0.053734   0.082341   0.050992  -0.030044  -0.433402  -0.085491
    116       0.111173   0.137052   0.067672  -0.045959   0.321150   0.163610
    117       0.049420   0.004678  -0.090053   0.042217  -0.206384  -0.156727
    118       0.086248   0.125836   0.078490  -0.070983  -0.380017  -0.147727
    119       0.184696   0.155825  -0.077989   0.033433   0.291972   0.225171
    120      -0.252575   0.077438  -0.235284   0.220534   0.020944  -0.075861
    121       0.032757  -0.068740   0.099363  -0.124317   0.016402  -0.152115
    122       0.100483  -0.122179   0.078327   0.054436   0.016092  -0.074564
    123       0.068467  -0.014172   0.300173  -0.198991   0.011936  -0.284794
    124      -0.183506   0.261259   0.017785  -0.025446   0.016330  -0.081544
    125      -0.017852  -0.001970   0.183457   0.247076  -0.004754  -0.038336
                 42         43         44         45         46         47    
      0       0.035475  -0.078306   0.111566   0.002938   0.030228   0.007653
      1       0.008526  -0.023316   0.041279   0.003331   0.043615  -0.019078
      2      -0.017173   0.005468  -0.003796   0.000920  -0.036543   0.060287
      3       0.022905  -0.040581   0.089474   0.018805   0.063871   0.072359
      4       0.030012  -0.031961   0.053184   0.006629   0.050795  -0.000928
      5      -0.013373  -0.001855   0.009245   0.002524   0.010350   0.017904
      6       0.022514  -0.004494   0.030552   0.011043  -0.019733   0.019942
      7       0.033806   0.019522  -0.026396   0.004104  -0.057557  -0.018383
      8       0.030777   0.013589  -0.042966  -0.007061   0.004226  -0.113098
      9      -0.164984   0.127380  -0.237645  -0.043721  -0.130642  -0.193823
     10      -0.071439   0.043847  -0.052530  -0.001686  -0.141658   0.195518
     11      -0.101598   0.071942  -0.118582  -0.017261  -0.114963   0.021811
     12       0.029199  -0.009024   0.054279   0.024651   0.015841   0.088616
     13      -0.026597  -0.068968   0.069069  -0.018135   0.110224  -0.068043
     14       0.223371  -0.224052   0.403567   0.064642   0.306438   0.176489
     15      -0.008098   0.018677  -0.029625  -0.007758   0.012686  -0.048796
     16      -0.050594  -0.002866  -0.005976  -0.010964  -0.028897  -0.029902
     17       0.165581  -0.003714  -0.048196   0.001321  -0.009665   0.027399
     18       0.096241   0.039287  -0.098092  -0.008319  -0.102856  -0.097070
     19       0.084861   0.084774  -0.181296  -0.019665  -0.032994  -0.341452
     20      -0.014509  -0.050798   0.107985   0.016269  -0.033808   0.217478
     21      -0.122367   0.033605  -0.016991  -0.007092  -0.058171  -0.095714
     22      -0.037424  -0.081251   0.211111   0.039619  -0.050088   0.407319
     23      -0.066111  -0.023544   0.062905   0.004539  -0.009101   0.067246
     24      -0.024611   0.095031  -0.171305  -0.015629  -0.040536  -0.011301
     25       0.048101   0.004315  -0.049640  -0.010760   0.064504   0.013719
     26      -0.270509   0.012671   0.090613  -0.002062   0.002954  -0.033127
     27      -0.012467   0.022308  -0.047996  -0.007776  -0.084340  -0.028142
     28      -0.029494   0.011188  -0.007530  -0.001854   0.062491   0.013612
     29       0.063862  -0.022794   0.009527   0.000105   0.032276   0.000305
     30       0.050280  -0.080426   0.121035   0.001764   0.113233  -0.155440
     31      -0.121576   0.046236  -0.059923  -0.008497  -0.190057   0.224680
     32      -0.055611   0.025285  -0.029729  -0.003371  -0.081283   0.081724
     33      -0.004004  -0.035775   0.030673  -0.007886  -0.129313   0.068968
     34       0.019648  -0.007526  -0.002517  -0.005717  -0.013577  -0.100734
     35       0.087458  -0.040691   0.050391   0.000324   0.134720  -0.263334
     36       0.031676  -0.035541   0.051826   0.005048  -0.028081  -0.031491
     37      -0.002337   0.052217  -0.083947  -0.002678  -0.032371   0.007835
     38      -0.033138   0.038768  -0.044674  -0.004173  -0.008204  -0.029686
     39      -0.007041  -0.000727   0.013934   0.001664  -0.007357  -0.017003
     40       0.024041   0.000204  -0.010322   0.003206  -0.133921  -0.000941
     41      -0.002322  -0.013023   0.033387   0.004786  -0.054477  -0.015638
     42       0.147853  -0.043681  -0.022073   0.006234   0.020714   0.138327
     43       0.016080   0.043205  -0.075214  -0.005501   0.027662  -0.043610
     44      -0.021374   0.035308  -0.047445  -0.004163   0.003103  -0.017321
     45      -0.029856  -0.033222   0.096421   0.004855   0.047406  -0.107553
     46      -0.043989   0.048201  -0.044966  -0.000915   0.109141  -0.002345
     47       0.053448   0.024327  -0.088881  -0.000729   0.021339   0.134589
     48      -0.058178   0.003188   0.018376  -0.003907   0.081685   0.030707
     49      -0.013812  -0.041652   0.083265   0.004676   0.033460   0.002331
     50       0.068534  -0.045589   0.039355   0.006744  -0.053182   0.031729
     51      -0.064484   0.148827  -0.217169  -0.015124  -0.085579  -0.061926
     52       0.026680  -0.033302   0.064496   0.015035  -0.328510  -0.022120
     53      -0.006494   0.052661  -0.117553  -0.020029   0.372409   0.034074
     54       0.115913  -0.086869   0.095318   0.017284  -0.102416   0.074906
     55       0.003990   0.073481  -0.166618  -0.023530   0.338030   0.053973
     56      -0.001993  -0.004399   0.012598   0.001365   0.008577  -0.006407
     57      -0.097164   0.106773  -0.155025  -0.011371   0.027102   0.036683
     58      -0.052507  -0.020129   0.067712   0.002171   0.032374  -0.021647
     59       0.153313   0.026808  -0.142676  -0.009619   0.060086  -0.005460
     60       0.275349  -0.144609   0.117469   0.030351  -0.331090   0.083144
     61       0.237900  -0.056606  -0.050295   0.001119   0.055578   0.020074
     62       0.016310  -0.027470   0.034779   0.003111  -0.009844   0.024137
     63      -0.150299   0.040042  -0.000355  -0.012797   0.187255  -0.008867
     64      -0.183517   0.027741   0.050141  -0.004653   0.124402   0.037930
     65      -0.301136   0.102898  -0.032794  -0.022913   0.273906  -0.024074
     66       0.029147  -0.034983   0.030608  -0.006266   0.019896  -0.050088
     67       0.034291  -0.077244   0.087110   0.001812  -0.066915  -0.009477
     68      -0.075576  -0.035719   0.065045   0.000362  -0.037384   0.065328
     69       0.006890   0.068533  -0.122683   0.004405   0.008321   0.049802
     70       0.086390  -0.013028  -0.014604   0.008603   0.017320  -0.015906
     71      -0.247459   0.049233   0.139654   0.010420  -0.019357   0.008299
     72      -0.002809  -0.049945   0.068989  -0.007516  -0.008361  -0.008515
     73      -0.058400   0.036994   0.019840   0.008628  -0.005884   0.000647
     74       0.193341  -0.079904  -0.118129  -0.008782   0.015190  -0.026240
     75       0.009949   0.047497  -0.021639   0.019036   0.025545   0.039969
     76       0.000818   0.041906   0.005905  -0.011079   0.011826   0.009251
     77       0.012004  -0.073221  -0.059955   0.010091   0.010839   0.004530
     78       0.034904  -0.099741   0.076892   0.016418  -0.006558  -0.030158
     79      -0.044846  -0.129417  -0.045163   0.012094  -0.006210  -0.011106
     80       0.135943   0.411092   0.206464  -0.076199  -0.005022  -0.001446
     81      -0.022178  -0.047511  -0.003022  -0.021142  -0.003827   0.019594
     82      -0.082420   0.075960  -0.194889  -0.026820   0.010604   0.042753
     83      -0.021965   0.104355  -0.013718  -0.002052   0.004649   0.000943
     84      -0.007620   0.031305   0.003238  -0.021866  -0.001826   0.012900
     85      -0.018266   0.105836  -0.043641  -0.026184  -0.004551   0.022176
     86      -0.102065  -0.253557  -0.152556   0.071655  -0.002376   0.015300
     87       0.034044  -0.051937   0.096486   0.000407  -0.015280  -0.039903
     88       0.050857  -0.001508   0.081540   0.006107   0.000078  -0.017721
     89      -0.024078  -0.125010  -0.020252   0.023012  -0.001189  -0.010471
     90      -0.008874   0.037412  -0.014391   0.069085   0.000213  -0.002819
     91       0.010008   0.014730   0.014701   0.117851  -0.000066  -0.003070
     92       0.001852  -0.030196   0.001168  -0.090217  -0.000349   0.004300
     93      -0.009303   0.006598  -0.021102  -0.046915   0.000137  -0.000142
     94      -0.006800  -0.043975  -0.004327  -0.072631   0.000302  -0.000482
     95       0.005677   0.084808  -0.015441   0.064345   0.000967  -0.003301
     96      -0.000461  -0.029427   0.003120  -0.019416   0.000560  -0.001956
     97       0.009283  -0.049627   0.020894  -0.034801   0.001064  -0.003348
     98       0.034098   0.005231   0.050497   0.030117   0.000813  -0.005739
     99      -0.002940   0.015813  -0.007227   0.032568  -0.000473   0.001992
    100       0.028713   0.022660   0.045397   0.042066   0.000692  -0.005490
    101       0.014437  -0.057674   0.037860  -0.041437   0.000786  -0.003059
    102       0.004803  -0.058772   0.019872  -0.050001   0.000204   0.002293
    103      -0.020069  -0.026090  -0.026861  -0.079573  -0.000475   0.003534
    104      -0.000388   0.040394  -0.007089   0.061112  -0.000474  -0.000179
    105      -0.006391   0.046660  -0.026145  -0.020946   0.000233   0.001043
    106      -0.008133  -0.001107  -0.009858  -0.028931  -0.000579   0.003036
    107      -0.015271   0.046853  -0.038104   0.022336  -0.000122   0.000211
    108       0.014564   0.004556   0.017291  -0.036764  -0.000884   0.003623
    109       0.032138   0.048967   0.040143  -0.070347  -0.000524   0.003496
    110       0.017152  -0.041341   0.035412   0.052177   0.002511  -0.012421
    111       0.019256   0.287394  -0.043458   0.356539   0.001463  -0.013655
    112       0.051788   0.261516   0.034602   0.556732   0.000007  -0.015071
    113      -0.049012  -0.242296  -0.023486  -0.448767  -0.001521   0.018158
    114       0.012816   0.039529   0.011565   0.174783  -0.000208  -0.003911
    115      -0.002301   0.133110  -0.032694   0.275452  -0.000811  -0.007778
    116      -0.037402  -0.097573  -0.035854  -0.211918  -0.001728   0.015042
    117       0.041277   0.124069   0.025672   0.124450   0.000689  -0.006696
    118       0.019404   0.192141  -0.022597   0.220727   0.001253  -0.001865
    119      -0.011124  -0.100799   0.003935  -0.166107   0.000261  -0.002947
    120       0.059298  -0.028322   0.008400   0.000510   0.042774  -0.008996
    121       0.113847  -0.116369   0.065988  -0.005194  -0.102828   0.130889
    122      -0.363673   0.098346   0.148069   0.023494   0.074974  -0.439181
    123      -0.042663  -0.057364  -0.066848  -0.031612  -0.007985   0.054191
    124      -0.050351   0.044171  -0.240117   0.008012   0.021461   0.006350
    125      -0.143488   0.229817   0.152927  -0.133002  -0.034336   0.133887
                 48         49         50         51         52         53    
      0       0.021743   0.007147  -0.029524   0.036454   0.083650  -0.004827
      1      -0.034178  -0.061846   0.055039  -0.037478  -0.116479  -0.111205
      2      -0.065613  -0.021738   0.031250  -0.061321   0.026510  -0.035356
      3       0.075162   0.066897  -0.050289  -0.018654  -0.052537   0.066444
      4       0.026415   0.001009  -0.060439   0.010192  -0.033078  -0.010975
      5       0.049588   0.051362  -0.047543   0.042669   0.025744   0.068282
      6      -0.026304  -0.010279   0.035866  -0.050969  -0.062800  -0.083947
      7       0.076264   0.091131  -0.023637   0.040951   0.046575   0.092341
      8       0.053874  -0.000171  -0.000492   0.049741  -0.044847  -0.012665
      9       0.003918  -0.015491   0.100639   0.163129   0.062975   0.007467
     10      -0.176206   0.007024  -0.035653  -0.115459   0.244294   0.002232
     11      -0.046469   0.031819   0.001669   0.042393   0.161540   0.057956
     12       0.073385   0.101499  -0.033266  -0.062768  -0.094459   0.084349
     13       0.002987  -0.088817  -0.070970   0.134417   0.104356  -0.060753
     14       0.217545   0.115578  -0.221533  -0.051640  -0.175847   0.110131
     15      -0.035518  -0.058261  -0.002718   0.031216   0.049555  -0.012304
     16       0.000739  -0.008906   0.031032   0.018079   0.012886  -0.019949
     17      -0.038314   0.000509  -0.014813  -0.057890   0.044351  -0.010187
     18      -0.060949  -0.064573   0.133766  -0.101375  -0.036594  -0.236476
     19       0.288122   0.135150  -0.064160   0.216310  -0.026507   0.164079
     20      -0.174850  -0.051821   0.053121  -0.147234   0.038662  -0.107960
     21      -0.004333  -0.041639   0.116254   0.102082  -0.122287  -0.138757
     22      -0.160912   0.056541  -0.022439  -0.180640   0.130823   0.053576
     23      -0.063596  -0.030266   0.033360  -0.006769  -0.022726  -0.055166
     24      -0.028360  -0.031786   0.004945   0.007830   0.041010   0.014732
     25      -0.023959  -0.047043   0.025965   0.014394   0.075720  -0.010670
     26       0.042280  -0.044379   0.002456   0.002897   0.023579   0.003673
     27      -0.039085  -0.001612   0.037212  -0.011379   0.007176  -0.006610
     28      -0.009923  -0.044870   0.040858  -0.014577   0.000141   0.006424
     29       0.012580  -0.034318   0.011535   0.007548  -0.011090  -0.017796
     30       0.051980  -0.033001   0.057859   0.063064  -0.155658  -0.102668
     31      -0.224739  -0.003936   0.046765  -0.136620   0.296303  -0.032785
     32      -0.118391  -0.017618   0.059621  -0.083273   0.077399  -0.048861
     33      -0.080101   0.007561  -0.018874  -0.009141   0.242865  -0.021463
     34      -0.076804  -0.108137   0.103509  -0.040792  -0.169887  -0.215669
     35       0.039769  -0.131772   0.125813   0.024996  -0.416630  -0.250935
     36      -0.022246  -0.017839   0.160840  -0.062046  -0.080373   0.090787
     37       0.019742  -0.044691   0.000476   0.008891   0.041770   0.045980
     38      -0.061841   0.094408   0.002441   0.001009   0.000871   0.015397
     39      -0.010532   0.054714   0.005742   0.009449   0.031988   0.022305
     40       0.025348   0.090935  -0.126834   0.014392  -0.051635  -0.079239
     41      -0.000547   0.011894   0.050237  -0.024409  -0.033633   0.035982
     42       0.303190  -0.468823  -0.054003   0.054200   0.134210   0.020356
     43      -0.039587  -0.033465   0.117974  -0.024590  -0.038330   0.097220
     44      -0.036900   0.053124  -0.007636   0.008136   0.012025   0.010266
     45      -0.178748   0.139170   0.352344  -0.131947  -0.171718   0.211645
     46      -0.037708  -0.038092   0.148316  -0.032924   0.020239   0.170375
     47       0.231624  -0.280513  -0.225811   0.105203   0.187991  -0.082662
     48      -0.021693   0.065721  -0.153862   0.040031   0.012762  -0.106379
     49      -0.026080   0.033737   0.028665  -0.025198  -0.052677   0.042851
     50       0.077104  -0.080683  -0.039079   0.005232  -0.012482  -0.018144
     51      -0.074096   0.133619  -0.003867   0.048695   0.171607   0.080666
     52       0.051023   0.173131  -0.160733  -0.007921  -0.137345  -0.101408
     53      -0.052135  -0.168132   0.118296   0.022686   0.142401   0.079601
     54       0.262376  -0.287252  -0.058116   0.045669   0.099417   0.003367
     55      -0.042150  -0.084754  -0.058929   0.063729   0.135318  -0.031811
     56      -0.004583  -0.019213   0.058400  -0.016653  -0.005942   0.042539
     57       0.008459  -0.044226  -0.032634  -0.007221  -0.032047   0.012797
     58      -0.002251  -0.035373   0.065305   0.013226   0.084698   0.029171
     59      -0.066175   0.050181   0.009313   0.000375   0.016426   0.003989
     60       0.340584  -0.325590  -0.095474   0.022395  -0.008177  -0.065519
     61      -0.021432  -0.046448   0.110076  -0.037237  -0.040600   0.129211
     62       0.036155  -0.031216  -0.050010   0.007983  -0.010288  -0.027981
     63      -0.162222   0.295564  -0.232459   0.065375   0.024694  -0.193748
     64      -0.021139  -0.105210   0.112285  -0.060157  -0.065709   0.165541
     65      -0.235215   0.296304  -0.126801   0.027060   0.003507  -0.092219
     66      -0.064353  -0.056443  -0.078822   0.022131   0.027454   0.030154
     67      -0.058757   0.011546  -0.109310  -0.048180  -0.059771   0.022070
     68      -0.057690  -0.003639   0.045862   0.129968  -0.067697   0.009987
     69       0.055056   0.003463  -0.019424  -0.024050  -0.079005   0.007155
     70       0.019952   0.031184   0.063012   0.004338   0.048103   0.002888
     71       0.039132  -0.017723   0.018102   0.002461   0.004900   0.002628
     72      -0.017870  -0.006753  -0.021841   0.015092   0.009315   0.021114
     73      -0.010149  -0.004276  -0.019127   0.020775   0.009483   0.009255
     74      -0.005648   0.008141  -0.031203  -0.024923   0.012160   0.001910
     75       0.085962   0.030886   0.036485  -0.026600  -0.070731   0.007480
     76       0.054493   0.038988   0.069888  -0.005482   0.048653  -0.059092
     77       0.022808   0.018462   0.023586  -0.007008   0.005428  -0.014740
     78      -0.010510   0.011690   0.032681   0.012424   0.067758  -0.032999
     79      -0.064509  -0.042086  -0.075852   0.003849  -0.038438   0.047558
     80      -0.026484  -0.011650  -0.014202   0.014861  -0.007658   0.005051
     81       0.054917   0.047633   0.064900  -0.012199   0.005372  -0.003680
     82       0.055017   0.009752   0.009770  -0.005485  -0.038553  -0.040777
     83       0.026979   0.003732  -0.013615  -0.041228   0.009416  -0.003400
     84       0.067598   0.061233   0.091780  -0.012888   0.054105  -0.047530
     85      -0.013468  -0.031660  -0.064643  -0.016726  -0.083873   0.045376
     86       0.002712   0.001873   0.006492   0.010150  -0.025703   0.011175
     87      -0.083660  -0.034452  -0.045557   0.022097   0.029205   0.016091
     88      -0.016728  -0.002546   0.003256   0.009319   0.023125  -0.004556
     89      -0.011756  -0.004285  -0.005024   0.001753   0.010702   0.001677
     90       0.010940   0.018862   0.035732   0.002807   0.035720  -0.023034
     91      -0.015393  -0.012165  -0.013066   0.010489  -0.018726   0.036833
     92       0.006450   0.000605  -0.005314  -0.006870  -0.008136  -0.007215
     93      -0.019075  -0.017814  -0.028304   0.000939  -0.015482   0.021596
     94      -0.002646  -0.003469  -0.006408  -0.000086   0.000373   0.021163
     95      -0.022550  -0.020101  -0.030307   0.001490  -0.017876  -0.005997
     96       0.003101   0.003141   0.006588   0.002027   0.012412  -0.049463
     97       0.009675   0.008051   0.015156   0.003798   0.018593  -0.073387
     98       0.021676   0.022191   0.034073  -0.005339   0.028358   0.031747
     99      -0.005663  -0.006006  -0.008770   0.002047  -0.011252   0.014644
    100       0.026700   0.030394   0.050440  -0.000929   0.045757  -0.020740
    101       0.032000   0.032189   0.051186  -0.003016   0.046177  -0.043650
    102       0.014433   0.009301   0.011804  -0.003085   0.002114  -0.017175
    103      -0.007339  -0.009844  -0.020020  -0.005823  -0.015926  -0.022956
    104      -0.006706  -0.003624  -0.002775   0.004810  -0.003341   0.027341
    105      -0.036407  -0.038382  -0.063655  -0.001138  -0.050003   0.051288
    106       0.000146  -0.001567  -0.004940  -0.003723  -0.007705   0.027509
    107      -0.035445  -0.034039  -0.052574   0.005226  -0.039907   0.012668
    108       0.018748   0.014138   0.007343  -0.025861  -0.008902   0.227762
    109       0.036901   0.032986   0.033766  -0.034229   0.007457   0.351674
    110       0.004626   0.010097   0.033926   0.026463   0.053712  -0.297097
    111      -0.081030  -0.065064  -0.086391   0.027063  -0.049171  -0.037327
    112       0.003167   0.024747   0.067185   0.039577   0.054164  -0.142318
    113       0.011629  -0.009180  -0.037686  -0.029744  -0.049782   0.129326
    114       0.001557   0.009401   0.025828   0.016818   0.017623   0.105602
    115      -0.025767  -0.007213   0.006162   0.025205   0.014213   0.168684
    116       0.002025  -0.012531  -0.034273  -0.017927  -0.044796  -0.115904
    117      -0.019047  -0.018341  -0.029239  -0.000207  -0.021327  -0.068908
    118      -0.012847  -0.014223  -0.024969  -0.007417  -0.026746  -0.135586
    119      -0.016473  -0.013741  -0.018925   0.007848   0.001321   0.119866
    120      -0.144314  -0.096698  -0.144545   0.155083  -0.012714   0.106598
    121      -0.135440   0.025163   0.043453   0.185613  -0.151217   0.015525
    122       0.223430  -0.043211  -0.484434  -0.729027   0.255848   0.012146
    123       0.113451   0.067455   0.070787  -0.089924  -0.083095   0.043238
    124       0.063023   0.003119  -0.042336  -0.078637   0.000972  -0.030121
    125      -0.012125   0.021687   0.172663   0.247136  -0.130198  -0.052710
                 54         55         56         57         58         59    
      0       0.003405   0.004942   0.014842   0.133793   0.013305   0.086043
      1       0.053328   0.005612   0.002654  -0.039221  -0.004914   0.005911
      2       0.015863  -0.003595   0.006296  -0.003043  -0.000828   0.033779
      3      -0.033842  -0.008436  -0.015073  -0.101718  -0.009816  -0.052507
      4       0.005800  -0.001337   0.001937   0.028584   0.003533  -0.128153
      5      -0.032286   0.000487  -0.008182  -0.009015  -0.000320  -0.022510
      6       0.040520   0.003072   0.008626   0.027655   0.002472  -0.012934
      7      -0.044032  -0.001383  -0.007003  -0.026307  -0.002735   0.143921
      8       0.007128   0.002415   0.001649   0.009927   0.000967   0.001067
      9       0.000774   0.025067  -0.001156   0.059295   0.005143   0.209961
     10      -0.002297  -0.013522   0.025409   0.156756   0.016048  -0.061040
     11      -0.026362   0.004515   0.004423   0.081645   0.008321   0.071334
     12      -0.043540  -0.014879  -0.026139  -0.257631  -0.026962   0.025370
     13       0.033214   0.018783   0.031366   0.423954   0.046339  -0.251355
     14      -0.057079  -0.023578  -0.022600  -0.110171  -0.008313  -0.333314
     15       0.007911   0.003306   0.007069   0.060496   0.006053  -0.031019
     16       0.008321   0.004063   0.002813   0.060079   0.006708  -0.027624
     17       0.003434  -0.008343   0.008191   0.028951   0.002863   0.002040
     18       0.112438   0.001504   0.046159   0.222920   0.021887   0.042175
     19      -0.076240   0.001349  -0.017332  -0.073025  -0.007553   0.183334
     20       0.050172  -0.001395   0.017961   0.087124   0.008814  -0.033133
     21       0.072280   0.037634   0.006722   0.137100   0.013890   0.024029
     22      -0.029258  -0.011033  -0.003969  -0.031782  -0.003093   0.042554
     23       0.027706   0.011213   0.002602   0.051291   0.005394  -0.035389
     24      -0.005166  -0.002825  -0.007130  -0.107445  -0.010722  -0.094796
     25       0.004718   0.002668   0.004995   0.052209   0.004754  -0.044776
     26      -0.002183  -0.003574   0.002421   0.002486  -0.000105  -0.023569
     27       0.003028  -0.000727  -0.003956  -0.073942  -0.008395   0.016548
     28      -0.003955  -0.001064  -0.004267  -0.021756  -0.001595   0.069990
     29       0.008663   0.002892  -0.000185   0.004751   0.000616   0.027053
     30       0.050757   0.017910   0.001646   0.010637  -0.001193   0.110981
     31       0.013703  -0.009190   0.029787   0.113191   0.008977   0.195951
     32       0.021957  -0.003255   0.011408   0.008309  -0.000946   0.110541
     33       0.011327   0.000230   0.031879   0.188256   0.017232   0.121019
     34       0.104823   0.012489   0.011612  -0.052637  -0.008293  -0.003336
     35       0.122661   0.022379  -0.006445  -0.147100  -0.017338  -0.053089
     36      -0.048199  -0.006502  -0.015832  -0.014968   0.000496   0.052793
     37      -0.020456  -0.003454  -0.005567  -0.062203  -0.006512   0.038351
     38      -0.007193   0.000435   0.001076   0.008711   0.000585  -0.007272
     39      -0.009245   0.001223   0.010075   0.078195   0.007100  -0.122451
     40       0.036694   0.003299   0.003903   0.032998   0.003722  -0.037036
     41      -0.018886  -0.002679  -0.004025   0.012042   0.001918  -0.031092
     42      -0.004991  -0.004749  -0.008397  -0.126873  -0.012358   0.101863
     43      -0.047387  -0.005859  -0.020848  -0.123956  -0.010046   0.183376
     44      -0.004100   0.000522   0.000676  -0.005318  -0.000684   0.007217
     45      -0.111251  -0.011501  -0.028135   0.031817   0.007415   0.098164
     46      -0.082783  -0.009235  -0.016762  -0.027752  -0.000710   0.095625
     47       0.047986   0.003581   0.013807  -0.048038  -0.007039  -0.033733
     48       0.051885   0.005385   0.002871  -0.048616  -0.005594   0.123156
     49      -0.023351  -0.003110  -0.009154  -0.009149   0.000055   0.020398
     50       0.008375  -0.000106  -0.003665  -0.030142  -0.002771   0.049371
     51      -0.029346   0.000157   0.030402   0.115799   0.007161  -0.582325
     52       0.044128   0.002560   0.001887   0.067478   0.008305  -0.076460
     53      -0.033381  -0.001156  -0.001430  -0.069652  -0.008422   0.085138
     54       0.003689  -0.000247   0.014709   0.061963   0.005377  -0.178043
     55       0.020583   0.004518   0.005503  -0.064067  -0.008295   0.103035
     56      -0.021007  -0.002519  -0.003641  -0.001479   0.000221  -0.012254
     57      -0.006506  -0.005235  -0.015380  -0.105974  -0.009209  -0.056441
     58      -0.009808   0.001881   0.016368   0.065805   0.004533  -0.079119
     59      -0.001295   0.001145   0.001237   0.002512  -0.000072  -0.032522
     60       0.033108   0.000091   0.001617  -0.029567  -0.002642   0.054056
     61      -0.064489  -0.005620  -0.017385  -0.028215  -0.001787  -0.044826
     62       0.013019   0.000647  -0.002872  -0.030845  -0.002979   0.058787
     63       0.094638   0.014422   0.018985   0.031004   0.001080   0.167905
     64      -0.084457  -0.017750  -0.039947  -0.194211  -0.016403  -0.044158
     65       0.043376   0.005623   0.001823  -0.035038  -0.004151   0.090124
     66      -0.013254  -0.005915   0.001053   0.013932   0.001964   0.033165
     67      -0.012978  -0.017566  -0.006466  -0.095072  -0.009418  -0.016034
     68       0.000629   0.045022  -0.032104  -0.022581  -0.000953  -0.008107
     69      -0.005359  -0.002449  -0.008495  -0.016369  -0.000622  -0.006845
     70       0.002765   0.003821   0.017744   0.061276   0.003736  -0.010219
     71       0.000481   0.002410   0.004080   0.014910   0.000876  -0.001602
     72      -0.013593   0.004918  -0.011343   0.000151  -0.000200   0.009868
     73       0.002016   0.015399  -0.006012  -0.029398  -0.002535   0.012937
     74      -0.005349  -0.055580   0.036212  -0.015549  -0.003349   0.005437
     75      -0.001585   0.003827   0.022574   0.225575   0.023393   0.050142
     76       0.022490   0.001767  -0.005857  -0.050694  -0.005404  -0.003196
     77       0.006675   0.002069   0.000649   0.013067   0.001673   0.004560
     78       0.015895   0.004751  -0.003570  -0.076147  -0.008925  -0.009173
     79      -0.017608   0.000653  -0.005528   0.020796   0.005400   0.000720
     80      -0.009229  -0.023543   0.006627  -0.003685  -0.000377  -0.000830
     81      -0.007172  -0.017634   0.008150   0.042376   0.004458  -0.001459
     82       0.010665  -0.041338   0.011438  -0.033333  -0.001578   0.012069
     83       0.010463   0.131640  -0.101939   0.013507   0.009045   0.002167
     84       0.018319   0.003992  -0.009226  -0.071869  -0.006925  -0.015187
     85      -0.021882   0.007951  -0.009922   0.093252   0.011022   0.002928
     86       0.001618  -0.031440   0.048495   0.006341  -0.005619  -0.000888
     87      -0.006715  -0.000933  -0.002276  -0.057493  -0.007113  -0.011152
     88       0.001886   0.000327   0.003156  -0.009360  -0.002263   0.001410
     89       0.001320   0.006673  -0.001895  -0.008502  -0.001114  -0.000792
     90       0.022595   0.014867   0.025342  -0.087647  -0.013183  -0.012807
     91       0.016098   0.011868   0.061367   0.031755   0.002082   0.010233
     92      -0.019141  -0.017935  -0.039866   0.031224   0.005179   0.000159
     93       0.023095  -0.026131  -0.036047  -0.001476   0.044149  -0.002057
     94       0.040663  -0.041143  -0.059043  -0.002035   0.072236   0.001290
     95      -0.034451   0.036666   0.045012   0.002271  -0.052955   0.000839
     96      -0.050753  -0.019549  -0.047823   0.002908  -0.023966  -0.003268
     97      -0.081007  -0.035113  -0.068666   0.031677  -0.034798   0.002380
     98       0.066794   0.039858   0.045783  -0.035202   0.019781   0.001554
     99       0.009669  -0.004001   0.005546   0.005286   0.002709  -0.000179
    100       0.027246   0.003450  -0.008853  -0.063612  -0.004134  -0.010419
    101      -0.003768   0.007610  -0.009023  -0.072162  -0.009729  -0.013529
    102      -0.032679   0.026144   0.044312  -0.005150   0.038155   0.005466
    103      -0.058946   0.047887   0.058781  -0.031363   0.057392  -0.003984
    104       0.044122  -0.042142  -0.047205   0.029953  -0.043350  -0.000371
    105       0.007489   0.005167   0.005586   0.084557  -0.046404   0.013452
    106       0.030030   0.007827   0.008989   0.029676  -0.087214   0.002240
    107      -0.032755  -0.009666   0.000664   0.047103   0.076256   0.012920
    108       0.291037   0.139243   0.200775  -0.103260   0.083851  -0.005262
    109       0.478168   0.204921   0.340474  -0.158340   0.131021   0.009173
    110      -0.339793  -0.145156  -0.251381   0.089566  -0.107973   0.002114
    111      -0.108764  -0.048841  -0.044375  -0.006187   0.293632   0.007061
    112      -0.136005  -0.096565  -0.052471  -0.086765   0.450660   0.010463
    113       0.110339   0.059254   0.062271   0.166299  -0.348067   0.021233
    114       0.204591  -0.163953  -0.190052   0.106713  -0.191660   0.003479
    115       0.318596  -0.251807  -0.316631   0.143378  -0.308162  -0.006420
    116      -0.256235   0.186026   0.260325  -0.113589   0.246550  -0.006809
    117      -0.159432   0.135131   0.175366   0.001076  -0.221254  -0.006470
    118      -0.280466   0.247835   0.305581   0.032213  -0.402837   0.005573
    119       0.217896  -0.191603  -0.241828  -0.021887   0.322573  -0.002330
    120      -0.036917   0.017855  -0.022486  -0.111748  -0.009346   0.131632
    121      -0.001805   0.055046  -0.049042  -0.084974  -0.006741  -0.038852
    122      -0.031763  -0.216927   0.122843  -0.032949  -0.008063   0.040535
    123      -0.012196   0.076143  -0.051408   0.258414   0.036850  -0.016103
    124       0.022431   0.182234  -0.154461  -0.016917   0.010385   0.012864
    125      -0.034337  -0.725354   0.528262  -0.084906  -0.040835   0.006798
                 60         61         62         63         64         65    
      0       0.009931  -0.012490  -0.065696  -0.015221   0.045734  -0.024004
      1      -0.078797  -0.078686   0.051935   0.021292   0.017364  -0.052424
      2      -0.041908  -0.044170   0.038743   0.021124   0.079416   0.094555
      3      -0.032506  -0.017827   0.089877   0.033098   0.019720   0.037254
      4       0.062839   0.063237  -0.082567  -0.040493  -0.028461   0.066996
      5       0.029775   0.033461  -0.010514  -0.007624  -0.069985  -0.108299
      6       0.000055  -0.011385  -0.114634  -0.052713  -0.031773  -0.003332
      7      -0.041556  -0.050899  -0.007459   0.001410   0.015038  -0.042361
      8       0.000872  -0.004448  -0.042494  -0.018151   0.047250   0.127789
      9      -0.040964  -0.058219  -0.007588   0.007272  -0.049657  -0.311741
     10       0.137290   0.126709  -0.192946  -0.087746  -0.093767   0.103645
     11       0.055749   0.046941  -0.077928  -0.032324  -0.111088  -0.181733
     12      -0.170378  -0.148963   0.180676   0.060691   0.044674   0.036093
     13       0.379878   0.357915  -0.317844  -0.112843  -0.108556  -0.002838
     14       0.082769   0.111678   0.046922   0.009707   0.044313   0.260331
     15       0.056999   0.062970   0.041200   0.021993   0.008204  -0.009365
     16       0.038430   0.041058   0.035527   0.020844   0.014785   0.022480
     17       0.020178   0.020023   0.000943   0.002282  -0.032797  -0.078396
     18       0.038458  -0.006046  -0.305423  -0.115834   0.099759   0.391444
     19      -0.064953  -0.073694   0.009308   0.006474   0.115455   0.141066
     20       0.032325   0.021748  -0.089147  -0.033603  -0.045153  -0.019589
     21       0.052932   0.017693  -0.305929  -0.126836  -0.165479  -0.301385
     22      -0.016563  -0.011206   0.054977   0.022480  -0.109444  -0.282298
     23       0.035280   0.027897  -0.088804  -0.037970  -0.076045  -0.126530
     24      -0.014574   0.002373   0.051791   0.015923  -0.032604   0.035899
     25       0.051483   0.072646   0.135395   0.056112   0.022165  -0.037713
     26       0.011900   0.020174   0.044759   0.017150  -0.004278   0.007344
     27      -0.037153  -0.026986   0.032949   0.003334  -0.035623   0.013579
     28       0.026424   0.035574   0.071099   0.039430  -0.016012  -0.003213
     29       0.004641   0.007224   0.034491   0.018097   0.020677  -0.050898
     30      -0.083474  -0.087716   0.032181   0.004170  -0.114555  -0.335014
     31      -0.076917  -0.094350   0.041430   0.027275   0.119914   0.106713
     32      -0.079427  -0.082520   0.069541   0.030505   0.056736   0.025838
     33      -0.034298  -0.068087  -0.098607  -0.032621   0.182222   0.173270
     34      -0.172502  -0.178766   0.038229   0.003478   0.086075  -0.010579
     35      -0.182918  -0.176898   0.073873   0.011756  -0.023303  -0.201926
     36       0.099397   0.111880   0.029181   0.016764  -0.009238   0.020790
     37      -0.015784  -0.022356  -0.110806  -0.060354   0.028588   0.040525
     38      -0.020298  -0.026913  -0.030406  -0.012107  -0.110934   0.030012
     39      -0.060374  -0.076846  -0.028764  -0.013460   0.012361  -0.048221
     40       0.042279   0.053192   0.076023   0.039979  -0.008401  -0.007411
     41       0.032778   0.034918  -0.004055  -0.004745   0.132991  -0.036165
     42       0.007706   0.009350  -0.092174  -0.050103   0.219435  -0.016891
     43       0.045391   0.043167  -0.071697  -0.012679  -0.276668   0.108207
     44      -0.023716  -0.030700  -0.031445  -0.010528  -0.109246   0.028056
     45       0.199790   0.212103   0.016154   0.023096  -0.098235   0.070374
     46       0.087054   0.075716  -0.175934  -0.080702   0.112256   0.072263
     47      -0.106186  -0.119625  -0.100591  -0.060922   0.238126  -0.047362
     48      -0.000270   0.005036  -0.014307  -0.011407  -0.002093   0.027871
     49      -0.012173  -0.030353  -0.112936  -0.057861   0.047735  -0.037565
     50      -0.004268  -0.006290  -0.015996  -0.005778  -0.121994   0.036386
     51      -0.334363  -0.389401  -0.136416  -0.080841   0.050987  -0.115116
     52       0.117749   0.140513   0.125660   0.062066   0.143984  -0.050163
     53      -0.114890  -0.137072  -0.115515  -0.054135  -0.202733   0.062041
     54      -0.136207  -0.169114  -0.062637  -0.023321   0.113417  -0.151900
     55      -0.114612  -0.132134  -0.081605  -0.036151  -0.320955   0.095817
     56       0.008509   0.006170  -0.026929  -0.015405   0.087073  -0.022713
     57       0.015030   0.022201  -0.007739  -0.006225  -0.002639  -0.003251
     58      -0.066426  -0.066173   0.080818   0.047879  -0.045137   0.033596
     59      -0.003535   0.000095   0.021191   0.010308   0.065053  -0.009890
     60       0.026611   0.041481   0.102095   0.063556  -0.199649   0.073037
     61      -0.113823  -0.160860  -0.233631  -0.120406  -0.326101   0.034504
     62      -0.000521  -0.001275  -0.019180  -0.009524  -0.074683   0.026745
     63       0.018347   0.035473   0.088294   0.044085  -0.005035   0.063644
     64      -0.035423  -0.072023  -0.362969  -0.208318   0.369936  -0.189029
     65       0.018048   0.025257  -0.030557  -0.029364   0.190246  -0.031737
     66       0.030005   0.025505   0.016303   0.019965   0.021725  -0.009838
     67      -0.022455  -0.027292  -0.062941  -0.035669  -0.017431  -0.009800
     68      -0.003513  -0.005195  -0.012656  -0.006682   0.006350   0.018167
     69       0.034383   0.041268  -0.015490  -0.022621   0.014708  -0.034013
     70      -0.053032  -0.046804   0.041835   0.012345  -0.012727   0.019762
     71      -0.012385  -0.010686   0.010325   0.001606  -0.015546   0.004722
     72      -0.000154   0.008203   0.029921  -0.015547   0.012063  -0.021103
     73      -0.012067  -0.013361   0.003744   0.020782  -0.005897   0.021720
     74      -0.002617  -0.000592   0.003359   0.004389  -0.000118   0.001875
     75      -0.016197  -0.055765  -0.005902   0.070190  -0.010441   0.029229
     76       0.022121   0.042748  -0.000687  -0.044516   0.005701  -0.019112
     77       0.004931   0.005083  -0.001104  -0.004380   0.003556  -0.002755
     78       0.012022   0.049437   0.020868  -0.077554   0.012957  -0.039158
     79      -0.009588  -0.051849  -0.026637   0.086940  -0.014672   0.049265
     80      -0.003320  -0.006259  -0.005057   0.016066  -0.002390   0.009573
     81      -0.039009  -0.042930   0.015345   0.001417  -0.013387   0.021296
     82       0.055304   0.058203  -0.024741  -0.027705   0.017307  -0.026033
     83       0.008529   0.006067  -0.001641  -0.010883   0.003323  -0.003360
     84      -0.008308   0.001387  -0.007491  -0.027888  -0.007963   0.013734
     85      -0.016342  -0.021415   0.008346   0.016206   0.000441  -0.016919
     86       0.000372  -0.005655  -0.000757   0.002831  -0.000509  -0.003706
     87      -0.002023  -0.005484  -0.001924   0.009685  -0.002363   0.010557
     88      -0.000279   0.004957   0.003315  -0.004305   0.001212  -0.000875
     89      -0.000015   0.000283   0.000811  -0.000517  -0.000063   0.000900
     90       0.013109   0.012192  -0.034985   0.022250  -0.005937   0.019569
     91      -0.012320   0.010249   0.023577  -0.023449   0.005094  -0.014913
     92      -0.022006  -0.003963   0.008006  -0.004478  -0.002907   0.001748
     93       0.008443  -0.004786  -0.031611   0.075091   0.003366  -0.009678
     94       0.118786  -0.110160   0.045533  -0.069737  -0.001838   0.004036
     95       0.170430  -0.137322   0.030265  -0.029988   0.001881  -0.004289
     96      -0.091627   0.084422  -0.047105   0.072855   0.000971   0.001884
     97      -0.062187   0.046951   0.016378  -0.048378  -0.001552   0.003949
     98      -0.146568   0.144189  -0.021496  -0.003366   0.000550   0.004916
     99       0.015323  -0.010448  -0.018682   0.052227   0.003742  -0.010288
    100       0.072039  -0.048582  -0.028202   0.048206  -0.001168   0.005455
    101       0.104579  -0.072316  -0.050474   0.103544   0.001408  -0.001118
    102       0.081985  -0.082228   0.086055  -0.167320  -0.005959   0.012260
    103      -0.074165   0.070973  -0.070870   0.143281   0.005327  -0.013369
    104      -0.029474   0.020448  -0.020390   0.048385   0.001596  -0.006467
    105      -0.041809   0.025113   0.044299  -0.076077   0.000988  -0.001660
    106      -0.023696   0.019599   0.019022  -0.049370  -0.001943   0.004726
    107      -0.070717   0.046072   0.059997  -0.124067  -0.001911   0.004842
    108       0.042302  -0.000496  -0.082424   0.186312   0.010600  -0.022227
    109      -0.190624   0.225582   0.032353  -0.173197  -0.003255   0.023129
    110      -0.273707   0.216745   0.006230  -0.093897  -0.008797   0.027070
    111       0.050841  -0.045951  -0.041986   0.152732   0.014133  -0.031885
    112      -0.185081   0.119271   0.159985  -0.408270  -0.022549   0.049807
    113      -0.157337   0.111907   0.158385  -0.376130  -0.015408   0.036099
    114       0.060273  -0.066708   0.042357  -0.063500  -0.001282  -0.002818
    115      -0.102367   0.090079  -0.121803   0.261430   0.010008  -0.028138
    116      -0.084764   0.079382  -0.116102   0.263293   0.012308  -0.040152
    117       0.124955  -0.068693  -0.117714   0.316914   0.024372  -0.071892
    118       0.121305  -0.075704   0.069606  -0.155324  -0.003917   0.018670
    119       0.192961  -0.184466   0.007467   0.058825   0.006167  -0.024183
    120       0.012169  -0.007918  -0.001548   0.075009   0.064928   0.040264
    121      -0.020663  -0.023696  -0.057473  -0.039927  -0.009463   0.016557
    122      -0.002442  -0.007385  -0.038294  -0.010101  -0.037002  -0.090454
    123      -0.108784  -0.131241   0.037225  -0.017921  -0.035362  -0.008802
    124       0.056484   0.058951  -0.020243  -0.034663   0.019662  -0.023075
    125       0.026587   0.030348  -0.022284   0.013204   0.003567  -0.016140
                 66         67         68         69         70         71    
      0      -0.045852  -0.043834  -0.004173  -0.051972  -0.050189   0.009396
      1      -0.007286  -0.021594  -0.001117  -0.030972  -0.031500   0.005708
      2      -0.070188  -0.032737  -0.002669  -0.050626  -0.068501  -0.070930
      3      -0.015452  -0.002113   0.001738  -0.020985  -0.000137  -0.016597
      4       0.030054   0.046396   0.004410   0.015065   0.032539  -0.000652
      5       0.070900   0.022662   0.002167   0.008829   0.021658   0.031142
      6       0.039192   0.036078   0.000004   0.038576  -0.013711   0.029364
      7      -0.016206  -0.026656  -0.005394   0.015573  -0.068491  -0.001533
      8      -0.054503   0.003479  -0.000235   0.042201   0.031936   0.025923
      9       0.078727  -0.043151  -0.005117  -0.124640  -0.175751  -0.086167
     10       0.027473   0.083784   0.004393   0.297302   0.329612   0.326688
     11       0.093215   0.026253   0.000398   0.088516   0.087750   0.136841
     12      -0.035552   0.023084   0.013266  -0.024553   0.145125   0.055024
     13       0.097744  -0.014666  -0.023045   0.028097  -0.305102  -0.146149
     14      -0.034716   0.027227   0.001418  -0.024501  -0.054206  -0.079226
     15      -0.029566  -0.017679   0.004887  -0.071209   0.096697  -0.035651
     16      -0.022865  -0.031338  -0.001112  -0.033136   0.054440  -0.020791
     17       0.031813  -0.004840   0.000389  -0.039724  -0.004537  -0.033676
     18      -0.120321  -0.025504  -0.031811   0.344926  -0.260136   0.175600
     19      -0.127678  -0.035335  -0.001905   0.018855   0.007984  -0.005131
     20       0.046067   0.005418  -0.008288   0.080436  -0.084656   0.049589
     21       0.256803   0.071202  -0.006654  -0.108347  -0.370507  -0.236230
     22       0.114100  -0.002936   0.000626  -0.048926  -0.025434  -0.003344
     23       0.106365   0.031495   0.000215  -0.050230  -0.092832  -0.081950
     24       0.070200   0.048150   0.003086  -0.001814  -0.050668  -0.034539
     25      -0.041634  -0.037602  -0.003465  -0.011521   0.009981   0.035752
     26      -0.020552  -0.007865  -0.000248  -0.004505   0.002714   0.016886
     27       0.040042   0.052995   0.007093   0.076874   0.099221   0.001284
     28      -0.028076  -0.056746  -0.014933   0.132366  -0.031975  -0.015785
     29       0.011283  -0.021710  -0.005672   0.052481  -0.002097   0.051712
     30       0.033934  -0.018475   0.000443   0.170383   0.230334   0.293271
     31      -0.194686  -0.085257  -0.005194   0.042697   0.073171   0.064841
     32      -0.105798  -0.049299  -0.002685   0.049356   0.065445   0.057489
     33      -0.135216  -0.008887   0.012934  -0.276836  -0.040276  -0.114789
     34      -0.021850   0.035353   0.019936  -0.258971   0.016670  -0.054741
     35       0.074048   0.041599   0.015676  -0.156031   0.041060   0.037028
     36       0.024300   0.016661   0.001528  -0.023860   0.014227   0.018237
     37       0.080088   0.115195   0.019542  -0.091623   0.044766   0.021573
     38      -0.059731  -0.020529  -0.000404   0.000206   0.010963  -0.074485
     39      -0.085412  -0.082317  -0.009544   0.025502  -0.033200  -0.009685
     40      -0.017158  -0.038741  -0.006550  -0.005011  -0.027393   0.004467
     41       0.068828   0.025774   0.001497   0.000014  -0.003138   0.035644
     42       0.264290   0.184207   0.018596   0.021443   0.060710   0.003491
     43       0.067738   0.049213  -0.002241   0.201293   0.106784  -0.378459
     44      -0.040569  -0.017919  -0.002161   0.036058   0.014554  -0.104046
     45      -0.048182  -0.017346  -0.000585  -0.152684  -0.134834   0.017157
     46       0.091176   0.139788   0.024628  -0.332494  -0.230748   0.133165
     47       0.135610   0.104861   0.013924  -0.062132  -0.038886   0.106395
     48       0.049018   0.065033   0.008036  -0.003728   0.036344   0.008247
     49      -0.049871  -0.051336  -0.006102   0.030248   0.017590  -0.034662
     50      -0.072704  -0.028366  -0.000441  -0.039331   0.008229   0.024298
     51      -0.166086  -0.181085  -0.011704  -0.049248   0.180437   0.180506
     52       0.059274  -0.022413  -0.007803  -0.007043  -0.053626   0.031624
     53      -0.096027  -0.004358   0.004480   0.004700   0.041126  -0.039047
     54      -0.058833  -0.181404  -0.036544   0.355430   0.004189  -0.418887
     55      -0.176145  -0.043892   0.001661  -0.039417   0.019088  -0.055949
     56       0.045690   0.022654   0.002133   0.002186   0.005043   0.018061
     57      -0.002541  -0.040407  -0.009042  -0.012326  -0.052160   0.024750
     58       0.067584   0.084249   0.013685  -0.021539  -0.021516   0.017300
     59       0.069904   0.037274   0.002407   0.023078  -0.002078  -0.026456
     60      -0.013459   0.003963  -0.000549   0.009613  -0.008050  -0.098640
     61      -0.458528  -0.250345  -0.012171  -0.238831  -0.051712   0.366327
     62      -0.037938  -0.006085   0.001281  -0.024779   0.015336   0.012441
     63       0.108818   0.157133   0.021189  -0.035304  -0.065628   0.050582
     64       0.019616  -0.133693  -0.027741   0.189823   0.251296  -0.171137
     65       0.133635   0.099774   0.008314   0.045631   0.018434  -0.016955
     66      -0.039816  -0.050098  -0.000885  -0.008149   0.056999  -0.012450
     67       0.017688   0.027734   0.009537  -0.021508   0.049956  -0.021906
     68      -0.008685   0.001195   0.002171  -0.001437   0.025502  -0.003858
     69      -0.096592  -0.009968  -0.001515   0.008914  -0.149291   0.033194
     70       0.038717   0.129297   0.016661   0.037466  -0.087371   0.010958
     71      -0.009212   0.031281   0.004738   0.006134  -0.044595   0.011065
     72      -0.060717   0.030269   0.009643  -0.004734   0.008961   0.011842
     73       0.056349  -0.018304  -0.014252   0.025357  -0.077452   0.011721
     74       0.008498  -0.001943  -0.002367   0.005769  -0.018532   0.005366
     75       0.092532  -0.051836  -0.008714  -0.021750   0.119595  -0.017239
     76      -0.055715   0.008711   0.006935  -0.011571   0.051241  -0.012990
     77      -0.002763  -0.003123   0.000647  -0.004475   0.029348  -0.006802
     78      -0.134151   0.111491   0.026110   0.012311   0.000938  -0.015215
     79       0.157529  -0.143248  -0.035310  -0.010191  -0.025532   0.015906
     80       0.029168  -0.028141  -0.005898  -0.001253  -0.007955   0.002911
     81       0.049049   0.034032   0.007616   0.019431  -0.023045  -0.004368
     82      -0.064969  -0.066824   0.006018  -0.030875   0.077995  -0.016067
     83      -0.012220  -0.009721  -0.002678  -0.005902   0.019213  -0.004891
     84       0.053248  -0.032172  -0.026897  -0.000130  -0.016404   0.012373
     85      -0.053899   0.095913   0.019299   0.011801  -0.034268   0.012658
     86      -0.008589   0.017357   0.014511   0.003346  -0.011568   0.004568
     87       0.034542  -0.029649  -0.007123   0.001498  -0.019549   0.006837
     88      -0.003540   0.002822   0.000576  -0.000341   0.010633  -0.003140
     89       0.002808  -0.002487  -0.000431   0.000041   0.000957  -0.000168
     90       0.075758  -0.103721  -0.039228  -0.014624  -0.022159   0.014412
     91      -0.056532   0.076184  -0.006151   0.008686   0.013366  -0.007102
     92       0.002434   0.030949  -0.037228   0.004548  -0.015717   0.007295
     93      -0.029121   0.039984  -0.073889  -0.006299   0.009269  -0.002150
     94       0.011281  -0.018828   0.060607   0.004070  -0.002959  -0.000337
     95      -0.014606   0.008520   0.008940  -0.000860   0.007776  -0.003730
     96       0.013568  -0.044223   0.089184   0.001504  -0.007070   0.000184
     97       0.008603  -0.005800  -0.015822  -0.001191   0.006772  -0.002391
     98       0.018713  -0.052517   0.054236  -0.001968   0.006232  -0.003676
     99      -0.032817   0.035742  -0.003105   0.000790   0.008700  -0.004065
    100       0.024994  -0.042778   0.028452  -0.002531  -0.007226   0.003492
    101       0.005882  -0.025678   0.033498  -0.002537  -0.002428   0.001144
    102       0.031047  -0.012593  -0.046912  -0.000827  -0.004303   0.004460
    103      -0.038116   0.041673  -0.007427   0.002077   0.002224  -0.000294
    104      -0.022233   0.042970  -0.046709   0.002119  -0.000796   0.002985
    105      -0.011901   0.004296   0.082824   0.008918   0.002241  -0.004021
    106       0.013123  -0.009847  -0.035224  -0.004303   0.002176  -0.001424
    107       0.008484  -0.010032   0.022617   0.001487   0.004866  -0.004800
    108      -0.060873   0.023705   0.169252   0.013366  -0.000169  -0.011297
    109       0.081671  -0.142629  -0.094800  -0.026719   0.015666   0.010994
    110       0.086187  -0.109504  -0.008935  -0.010982  -0.001603   0.005572
    111      -0.096086   0.043004   0.377343   0.035284   0.009048  -0.005780
    112       0.141020  -0.069299  -0.443728  -0.041588  -0.007145   0.001666
    113       0.094626  -0.051105  -0.266018  -0.024286  -0.001452  -0.003635
    114      -0.019615   0.067169  -0.129553   0.000578   0.006382   0.006600
    115      -0.087581   0.118646  -0.086063   0.003375   0.011967   0.001675
    116      -0.130252   0.208222  -0.216927   0.004880   0.018888   0.009148
    117      -0.254566   0.384425  -0.574347  -0.020534   0.090729  -0.046631
    118       0.064461  -0.127060   0.205657   0.006842  -0.017628   0.008469
    119      -0.087291   0.139964  -0.158333  -0.003661   0.029627  -0.016785
    120      -0.016879  -0.231719  -0.053694   0.220810  -0.279073   0.123793
    121       0.003204   0.045099   0.015208  -0.040788   0.100718  -0.034817
    122       0.040834  -0.010468  -0.001343  -0.007871  -0.038351  -0.007722
    123      -0.097610   0.443044   0.164546   0.119677  -0.136772  -0.062545
    124      -0.057952  -0.090343  -0.015493  -0.039669   0.091789  -0.013079
    125      -0.032898  -0.006310   0.050469  -0.000452   0.013286  -0.010943
                 72         73         74         75         76         77    
      0      -0.001716  -0.058159  -0.012488  -0.018616   0.045419   0.001152
      1      -0.003421  -0.052557   0.072012   0.030194  -0.012003   0.001158
      2       0.003551   0.051392   0.016644  -0.005768  -0.021620  -0.012758
      3       0.000143  -0.002135   0.049308   0.014473  -0.017866   0.003314
      4       0.003073   0.023904  -0.077658  -0.023320   0.026541   0.006168
      5      -0.003371  -0.030791   0.019391   0.025394   0.007954   0.030250
      6       0.001409   0.012215  -0.063171  -0.029589   0.032926   0.006518
      7      -0.001540   0.018651   0.043925   0.009078  -0.013796   0.012485
      8       0.000645  -0.008615  -0.045431  -0.021324   0.014112  -0.012909
      9      -0.001346   0.048632   0.114246   0.039997  -0.027566   0.041027
     10      -0.011704  -0.243135  -0.183696  -0.033156   0.125476   0.012929
     11      -0.009349  -0.117697  -0.003345   0.028812   0.043342   0.044976
     12       0.000203  -0.065513  -0.158497  -0.031763   0.093857   0.028144
     13       0.001328   0.151517   0.402024   0.086270  -0.220467  -0.042206
     14       0.004303   0.062951   0.111417   0.020945  -0.058059   0.008404
     15       0.000854  -0.042307   0.011567   0.003737  -0.048528  -0.083126
     16      -0.002728  -0.028400   0.057792   0.020805  -0.009711  -0.025050
     17       0.001288   0.019701   0.001020  -0.004570  -0.006181  -0.017706
     18      -0.015677  -0.124944   0.442039   0.209249  -0.108392   0.234590
     19       0.003768   0.030952  -0.068364  -0.050327   0.002850  -0.046186
     20      -0.007244  -0.038565   0.143719   0.074717  -0.022151   0.082655
     21       0.027176   0.395927  -0.212612  -0.140455   0.033536   0.024228
     22      -0.005326  -0.027582   0.100627   0.046609  -0.017707   0.020687
     23       0.008980   0.124953  -0.078885  -0.047357   0.014454   0.000525
     24      -0.002700  -0.018398  -0.005201   0.099047  -0.024476   0.030030
     25       0.002248   0.019640  -0.056726  -0.046007   0.067042   0.044127
     26      -0.000174   0.001054  -0.013984   0.000366   0.013810   0.014340
     27       0.002730   0.093726  -0.036846   0.013025  -0.057315  -0.007855
     28       0.001454   0.095008  -0.060229   0.003921  -0.045256  -0.023833
     29      -0.003193   0.028752  -0.015409   0.015404  -0.024313  -0.011333
     30      -0.016543  -0.316568   0.131215   0.009248   0.019996  -0.065701
     31      -0.000363  -0.124227   0.030207  -0.057587   0.013227  -0.092402
     32      -0.001636  -0.083894   0.063815  -0.022032  -0.019640  -0.069697
     33       0.016056   0.066405  -0.278918  -0.136305   0.187427   0.092686
     34       0.008729  -0.023545  -0.158397  -0.058532   0.151786   0.115030
     35      -0.001715  -0.113663  -0.022344   0.008432   0.093925   0.086435
     36      -0.000419   0.021241   0.044151  -0.067046   0.033186  -0.001794
     37      -0.000494  -0.017580   0.023283   0.002618  -0.004606   0.000962
     38       0.005279  -0.072337  -0.000875  -0.011151   0.032358   0.018225
     39       0.001182  -0.027617  -0.060467   0.062283  -0.024647   0.002716
     40      -0.000449  -0.010006   0.015572  -0.026879   0.033042   0.010384
     41      -0.003462   0.021753  -0.009802   0.035646  -0.035073  -0.025872
     42      -0.006303  -0.004263   0.031873   0.043351  -0.052095  -0.066798
     43       0.012950  -0.236303   0.102003  -0.070860   0.060483  -0.084429
     44       0.005395  -0.084311  -0.000202  -0.001392   0.023628   0.003570
     45      -0.002928  -0.135553  -0.037768   0.052300   0.098571   0.095491
     46      -0.013792  -0.199188  -0.152189   0.298885   0.018948   0.140715
     47      -0.008989   0.025991  -0.068271   0.150013  -0.087364  -0.002967
     48       0.001379   0.034072   0.037189  -0.050900  -0.006347  -0.016074
     49       0.003704  -0.013404  -0.038350   0.056866  -0.043638  -0.005197
     50       0.000303   0.027351   0.024598  -0.029338   0.007141   0.002363
     51      -0.010220   0.348164   0.341692  -0.351764   0.075526  -0.040195
     52      -0.003129  -0.014913  -0.002063   0.008454   0.016172  -0.000468
     53       0.003485   0.001964   0.005429  -0.015622  -0.003059   0.001671
     54       0.023722  -0.305432  -0.186819   0.163090   0.002594   0.042700
     55       0.007145  -0.039960   0.026614  -0.065227   0.057551   0.050418
     56      -0.001897   0.011516  -0.011194   0.033142  -0.031806  -0.020292
     57      -0.003878  -0.016526   0.030403  -0.007732   0.046551   0.011778
     58      -0.009507  -0.005397   0.015713   0.005951   0.036336   0.019206
     59      -0.001226  -0.023297   0.014971  -0.019056   0.033407   0.014845
     60       0.003525  -0.082409   0.074345  -0.125500   0.135818   0.072825
     61      -0.012912   0.264915  -0.068755   0.179000  -0.240061  -0.146004
     62       0.000871   0.021976   0.024092  -0.031431   0.005546   0.000998
     63      -0.009772  -0.004115  -0.097963   0.194627  -0.124621  -0.045074
     64       0.030212   0.043070   0.248675  -0.491083   0.200555   0.038389
     65       0.001145   0.000847   0.003361  -0.011695  -0.018506  -0.017678
     66      -0.014595   0.014309   0.032594   0.032973   0.010473  -0.032296
     67      -0.013211   0.013098  -0.007524   0.055167   0.022036  -0.015214
     68      -0.005303  -0.000482   0.002838   0.020166   0.007461  -0.007581
     69       0.006017  -0.070158  -0.040255  -0.080357  -0.021259  -0.057614
     70       0.000675  -0.030806   0.009550  -0.081002  -0.036001  -0.071355
     71       0.000494  -0.013645  -0.003243  -0.029537  -0.015046  -0.027440
     72       0.026712  -0.019843  -0.019528  -0.062225  -0.087334   0.057376
     73       0.011994  -0.008502  -0.011359  -0.041379  -0.016553   0.010149
     74       0.006289  -0.004595  -0.006022  -0.018897  -0.014209   0.008848
     75      -0.002404   0.036582   0.002828   0.044220   0.004508   0.021182
     76      -0.004629   0.023068   0.008468   0.042152   0.022742   0.024284
     77      -0.001294   0.010183   0.003073   0.016450   0.007366   0.010170
     78      -0.011881   0.013628   0.013409   0.024429   0.019999   0.003591
     79       0.011145  -0.021843  -0.012606  -0.025952  -0.024176   0.000898
     80       0.002630  -0.005110  -0.002102  -0.003961  -0.003784  -0.002169
     81       0.003462   0.011503   0.006668   0.004239  -0.002269   0.051061
     82      -0.007006   0.007651   0.005970   0.035879  -0.006012   0.018815
     83       0.001414   0.003913   0.002682   0.009725  -0.002382   0.016164
     84       0.037729  -0.004702  -0.004945  -0.020708  -0.012698   0.073331
     85      -0.010373  -0.015934  -0.014752  -0.036342  -0.001458  -0.069447
     86      -0.006898  -0.005390  -0.005089  -0.013422  -0.003031  -0.012284
     87       0.006180  -0.008282  -0.001198  -0.014386  -0.007933  -0.001521
     88      -0.000236   0.005080   0.003599   0.005594   0.001717   0.002390
     89       0.000204   0.000626   0.000880  -0.000027  -0.000522   0.000852
     90       0.009150  -0.020891  -0.012419  -0.005904   0.029680  -0.104828
     91       0.031159   0.013770   0.008570   0.001780  -0.013635   0.129270
     92       0.047611  -0.002891  -0.002626  -0.013961   0.001392   0.077286
     93      -0.042616  -0.002200  -0.002417   0.001495   0.001118  -0.094927
     94       0.003454   0.001294   0.000896  -0.000777  -0.002829   0.031274
     95      -0.030510   0.001357   0.000481   0.002367  -0.003240  -0.025680
     96      -0.076676  -0.007753  -0.007904  -0.023529  -0.018859   0.090840
     97       0.029703   0.005746   0.005812   0.018790   0.010078  -0.083909
     98      -0.025251   0.001443   0.001461   0.007199  -0.001217  -0.038741
     99      -0.021134   0.002979   0.001453   0.004558  -0.005684  -0.083823
    100      -0.021401  -0.006545  -0.004899  -0.008417   0.000461   0.012319
    101      -0.043006  -0.005998  -0.005003  -0.006924  -0.003973  -0.049864
    102       0.097340   0.003503   0.005583   0.016097   0.021150   0.007392
    103       0.014631   0.001838   0.000935  -0.002257  -0.002450   0.048424
    104       0.095181   0.005203   0.005701   0.010367   0.014074   0.064209
    105       0.017255   0.007183   0.004822   0.001249  -0.007862   0.082050
    106      -0.048113  -0.002764  -0.002695  -0.002776  -0.004581  -0.049450
    107      -0.046574   0.002269   0.000431  -0.002315  -0.011720   0.002481
    108      -0.233765  -0.003906  -0.012928  -0.063900  -0.075561   0.248842
    109       0.215101  -0.002642   0.009749   0.066519   0.070284  -0.277784
    110       0.096254  -0.001928   0.005390   0.040744   0.046321  -0.180521
    111       0.231918   0.032553   0.027614   0.045612   0.010811   0.038103
    112      -0.355714  -0.038449  -0.035264  -0.066092  -0.030789   0.011857
    113      -0.263912  -0.022428  -0.021981  -0.046853  -0.032018   0.054035
    114       0.305903   0.019614   0.023514   0.068544   0.068845  -0.127759
    115       0.209546   0.016592   0.017479   0.046040   0.041971  -0.069648
    116       0.511168   0.036201   0.040130   0.110368   0.108044  -0.188707
    117      -0.272926   0.029949   0.014560   0.006216  -0.070465   0.325078
    118       0.072653  -0.004351  -0.000187   0.005275   0.018405  -0.076814
    119      -0.115642   0.010531   0.003819  -0.002011  -0.030340   0.115955
    120      -0.136457   0.263583   0.093509   0.341375   0.661787   0.212171
    121      -0.002804  -0.019621  -0.014016   0.030263  -0.040338  -0.047132
    122      -0.015081   0.046992   0.008178   0.044287   0.056829   0.013753
    123      -0.280504   0.106728   0.074658   0.228276   0.376786  -0.511815
    124       0.020665   0.001485   0.001927   0.020778  -0.037330   0.066478
    125      -0.046315   0.008738   0.005330   0.028038   0.026011  -0.042547
                 78         79         80         81         82         83    
      0       0.008278  -0.010415  -0.019427   0.069362   0.085407  -0.009548
      1      -0.001438  -0.011966  -0.001468   0.030789   0.032884  -0.028934
      2      -0.012884  -0.017538   0.002900   0.004347   0.018480   0.012274
      3      -0.002184  -0.013741  -0.003426  -0.033826  -0.054875  -0.051719
      4       0.010656  -0.011024  -0.010675  -0.001685   0.005804  -0.011580
      5       0.027083   0.090891   0.002781  -0.007259   0.018593  -0.001254
      6       0.014031   0.003764   0.001594   0.006531   0.019591   0.169745
      7       0.018738  -0.009053   0.009670  -0.030590   0.019966   0.018080
      8      -0.007871  -0.035082   0.001151   0.018319   0.009497   0.028460
      9       0.034611   0.146471   0.012077  -0.068640   0.070418   0.222139
     10       0.034781  -0.019766  -0.017694   0.187977   0.067720  -0.334035
     11       0.048221   0.135222   0.004329   0.052756   0.076630  -0.050988
     12       0.037072   0.013532  -0.038036   0.058269   0.052244  -0.199385
     13      -0.069566  -0.052241   0.068746  -0.206949  -0.220119   0.340689
     14      -0.001101  -0.018224   0.000437  -0.106546  -0.101963   0.007744
     15      -0.106052   0.012799   0.018545   0.061962  -0.022800  -0.013687
     16      -0.049112   0.044247  -0.020836   0.042517  -0.084867  -0.089097
     17      -0.024511  -0.008066  -0.007772   0.014737  -0.031511  -0.037816
     18       0.259017   0.227108   0.030635  -0.240942   0.108148  -0.313577
     19      -0.037997  -0.112791   0.007633   0.013746  -0.009397   0.078249
     20       0.087641   0.107660   0.006428  -0.066223   0.049742  -0.101060
     21       0.077504  -0.410997  -0.062133  -0.070654  -0.079879  -0.583292
     22       0.005176   0.124848   0.009533  -0.033821  -0.014834   0.161861
     23       0.013429  -0.131498  -0.024993  -0.014829  -0.046506  -0.205437
     24       0.023532  -0.014353   0.012524   0.059757   0.039193  -0.030055
     25       0.043036   0.017087  -0.026303  -0.086667  -0.056826   0.014469
     26       0.012791   0.004381  -0.007272  -0.018468  -0.011909   0.002724
     27      -0.013253   0.038978   0.041865  -0.070515  -0.079157  -0.004581
     28      -0.012689   0.025630   0.034183   0.062414   0.079115   0.014469
     29      -0.005451  -0.021141   0.043585   0.029351   0.007999   0.000337
     30      -0.070928  -0.378301  -0.034035  -0.099363  -0.245320   0.007895
     31      -0.096183  -0.393543  -0.049553  -0.119024  -0.260043   0.133017
     32      -0.075268  -0.291921  -0.020302  -0.104849  -0.207129   0.078369
     33       0.095305   0.291717  -0.063640  -0.083461  -0.023472   0.021159
     34       0.103192   0.320166  -0.056562  -0.120327  -0.095445  -0.000515
     35       0.073102   0.203061  -0.036776  -0.073727  -0.083288   0.013897
     36       0.003434  -0.000354  -0.016552  -0.009913   0.005860   0.012670
     37      -0.006252   0.005298  -0.000884  -0.066401  -0.077633   0.002190
     38       0.014387   0.000866   0.002066  -0.035666  -0.040796   0.006855
     39      -0.002370   0.001853   0.024597  -0.001214  -0.041332  -0.009546
     40       0.015328  -0.009652   0.006637   0.031148   0.004311   0.010270
     41      -0.033749   0.002304  -0.084917   0.000491   0.010802   0.005191
     42      -0.085896  -0.009971  -0.296753   0.036816   0.166242  -0.047805
     43      -0.119296   0.004262  -0.585716   0.046217   0.247744  -0.033282
     44      -0.004071  -0.000438  -0.061161  -0.015352  -0.002580  -0.000664
     45       0.109132  -0.058492   0.175847   0.101770   0.051006  -0.013700
     46       0.146334  -0.090521   0.356397   0.170410   0.001091  -0.051704
     47      -0.008500  -0.008893   0.076331   0.043097  -0.031452  -0.012266
     48      -0.013907   0.018405  -0.010785   0.016081  -0.026795  -0.001874
     49      -0.016017   0.015092   0.013683  -0.008738   0.037599  -0.044857
     50       0.004954   0.004348   0.030476   0.022211   0.006491  -0.017686
     51      -0.001675  -0.005804  -0.056882   0.158838   0.433541  -0.086232
     52      -0.001299  -0.011270  -0.035097   0.040453  -0.021135   0.014793
     53       0.002710   0.007267   0.014978  -0.027050   0.027202  -0.004004
     54       0.006416   0.021441  -0.060873  -0.161722  -0.195870   0.133841
     55       0.062745   0.002233   0.193801   0.001631  -0.050655  -0.038818
     56      -0.028149   0.004401  -0.065523  -0.009439   0.001460   0.002382
     57       0.015253  -0.044920  -0.011359   0.022897   0.024389   0.048216
     58       0.036901  -0.054590  -0.015196  -0.062355   0.097133   0.055490
     59       0.023296  -0.020736   0.015500  -0.016124   0.032002   0.018583
     60       0.107479  -0.049251   0.219828   0.017388   0.165012  -0.052878
     61      -0.202847   0.073477  -0.379136   0.079723  -0.257001   0.093566
     62       0.003733   0.006481   0.027460   0.015987   0.008264  -0.019567
     63      -0.062024  -0.010635  -0.135836  -0.071509   0.120720  -0.004504
     64       0.072583   0.080099   0.227470   0.169503  -0.269966  -0.011650
     65      -0.016214   0.004860  -0.040799  -0.002671   0.030065   0.007365
     66      -0.044511   0.000886   0.015096   0.001888   0.033703  -0.010412
     67      -0.029676  -0.035534   0.019208  -0.009704   0.058289   0.042095
     68      -0.013571  -0.007388   0.007355  -0.001901   0.020526   0.012475
     69      -0.030802   0.024149  -0.026896   0.001013  -0.007887  -0.001439
     70      -0.045072   0.025995   0.014517   0.030871  -0.045200  -0.015606
     71      -0.016719   0.010149  -0.001203   0.008963  -0.013792  -0.004345
     72       0.106576  -0.003007   0.001185  -0.092982   0.039707  -0.016141
     73       0.018994   0.028483  -0.009717   0.101128  -0.077019  -0.011347
     74       0.016377   0.007737  -0.002901   0.017328  -0.016422  -0.004270
     75       0.005384  -0.004622   0.012466  -0.031325   0.009666  -0.001684
     76       0.007387  -0.012595  -0.000741  -0.011017   0.017600   0.004905
     77       0.002694  -0.004098   0.001928  -0.006750   0.005969   0.001075
     78      -0.022058  -0.001290   0.001364  -0.013739   0.022840  -0.008115
     79       0.030170   0.004349  -0.011614   0.060665  -0.027990   0.012102
     80       0.002135   0.001532  -0.002582   0.013500  -0.003988   0.001843
     81       0.074862  -0.001389  -0.018858   0.075509  -0.031030   0.003640
     82       0.024490  -0.013439  -0.002472   0.015195   0.031363   0.009321
     83       0.014997  -0.004464  -0.003383   0.014366   0.004152   0.003223
     84       0.053216  -0.015301  -0.018889   0.005489  -0.034336   0.016225
     85      -0.083807   0.011914   0.026227  -0.180979   0.048970  -0.028509
     86      -0.011514   0.001324   0.004788  -0.048456   0.009452  -0.004887
     87       0.008489   0.001287  -0.001212   0.022158  -0.014073   0.002709
     88       0.004922  -0.000847   0.001496   0.007552  -0.002094  -0.000164
     89       0.003393  -0.000200   0.000115   0.005002  -0.002362   0.000403
     90      -0.200867   0.018559   0.033161  -0.092139   0.041316  -0.018468
     91      -0.025711  -0.010630  -0.014116   0.042085  -0.017672   0.002554
     92      -0.173512   0.001783   0.007254  -0.034802   0.007141  -0.012691
     93       0.103129   0.005276   0.006488  -0.044068   0.008796  -0.012674
     94      -0.018028  -0.002447  -0.003430   0.020964  -0.003525   0.006194
     95       0.057252   0.000023  -0.000625   0.000577   0.000770  -0.000618
     96      -0.144623  -0.001737   0.003205   0.004796   0.007732   0.004023
     97       0.171558  -0.000388  -0.006866   0.010768  -0.011699   0.000769
     98       0.104106  -0.001595  -0.005739   0.018512  -0.007970   0.004038
     99       0.205125  -0.000378  -0.006539  -0.019525  -0.005523  -0.003865
    100      -0.088941   0.002574   0.006932  -0.009644   0.008172  -0.000821
    101       0.047504   0.003022   0.003651  -0.027096   0.006379  -0.004096
    102      -0.075073   0.001030   0.002510   0.019658   0.000124   0.005501
    103      -0.068498  -0.001450   0.000471   0.005718   0.002177   0.001140
    104      -0.142737  -0.000846   0.002613   0.022647   0.002811   0.005675
    105      -0.035341  -0.005796  -0.008152   0.038630  -0.008307   0.005958
    106       0.097654   0.000323  -0.002474  -0.007088  -0.004757   0.001152
    107       0.094424  -0.004280  -0.009449   0.021986  -0.012610   0.006333
    108      -0.070614  -0.015376  -0.018852   0.003550  -0.026659  -0.018870
    109       0.084772   0.015035   0.021525  -0.001540   0.040926   0.027253
    110       0.061051   0.010097   0.011960   0.020636   0.018552   0.023043
    111       0.233081  -0.016468  -0.034108   0.119750  -0.044345   0.032595
    112      -0.277942   0.014885   0.034201  -0.121237   0.044850  -0.035873
    113      -0.169026   0.005399   0.014856  -0.052633   0.021128  -0.018718
    114       0.052882   0.006639   0.005071   0.023734  -0.003482  -0.004500
    115       0.030289   0.004029   0.003866   0.008784   0.000701  -0.008743
    116       0.078536   0.010121   0.009167   0.025636  -0.003136  -0.014516
    117       0.114484  -0.038927  -0.062284   0.310236  -0.074775   0.085347
    118      -0.017660   0.008678   0.013705  -0.063308   0.018395  -0.020280
    119       0.065932  -0.014893  -0.023899   0.114329  -0.028042   0.033074
    120       0.027330   0.022093  -0.154772  -0.288871  -0.252473  -0.100104
    121      -0.048122  -0.036851   0.038160   0.028113   0.090199   0.058630
    122      -0.003604  -0.014889  -0.004983  -0.030292  -0.003505  -0.003185
    123      -0.467112   0.086604   0.072915   0.511254  -0.181380   0.042316
    124       0.071380  -0.021321  -0.009946  -0.015587   0.046422   0.006617
    125      -0.031724   0.004187   0.007052   0.045215  -0.002992   0.006042
                 84         85         86         87         88         89    
      0       0.035627   0.023791  -0.020684  -0.023838  -0.026166  -0.029511
      1       0.022516   0.023671   0.023425  -0.042433  -0.011035  -0.059082
      2       0.011235   0.012187  -0.008411  -0.019846  -0.019329  -0.022826
      3      -0.010410  -0.012966   0.060450  -0.003308   0.041424   0.003381
      4       0.012379  -0.018971  -0.143843   0.050434  -0.071444   0.029696
      5       0.010101  -0.009005  -0.037226   0.014857  -0.013869   0.012187
      6      -0.043827   0.027118   0.006489  -0.016026  -0.010990   0.004451
      7       0.011983  -0.012951   0.029129   0.000142   0.036579  -0.026457
      8      -0.007278   0.012107   0.026955  -0.014551   0.007654  -0.009537
      9      -0.013139  -0.019520  -0.226978   0.079120  -0.081300   0.026775
     10       0.089420   0.062347   0.534032  -0.212862   0.222952  -0.116113
     11       0.039927   0.018451   0.143994  -0.061984   0.067513  -0.036391
     12       0.083824  -0.029058  -0.164426   0.042879  -0.092297   0.018887
     13      -0.199407   0.020464   0.365759  -0.056406   0.231922  -0.008534
     14      -0.039903  -0.030311   0.103191   0.008207   0.095361   0.007975
     15      -0.019765   0.029526  -0.006926  -0.000151  -0.010916  -0.007302
     16      -0.016647   0.029494  -0.000183  -0.045912  -0.091583   0.104859
     17      -0.004740   0.008900   0.005918  -0.013591  -0.022886   0.027334
     18       0.178442  -0.190244  -0.233166   0.189674   0.060956  -0.069214
     19      -0.039344   0.027520   0.098480  -0.033357   0.040031  -0.007498
     20       0.075183  -0.060694  -0.077946   0.049554   0.014053  -0.035225
     21       0.159846  -0.113892   0.083334   0.023588   0.085823  -0.060764
     22      -0.057843   0.015521  -0.051861   0.015386  -0.038630   0.072810
     23       0.042117  -0.031675   0.015147   0.008826   0.007047   0.013150
     24      -0.045188   0.036220  -0.018341   0.050788   0.050190  -0.034389
     25      -0.048179  -0.037116  -0.013889   0.049109   0.032931  -0.100567
     26      -0.017122  -0.005750  -0.006483   0.019636   0.014014  -0.031159
     27      -0.014577  -0.022754   0.006741   0.004707  -0.013324   0.020703
     28       0.023310   0.017752   0.011477  -0.004790   0.018101   0.049262
     29       0.003420   0.004763  -0.000059   0.009276  -0.008108   0.017606
     30      -0.124541  -0.063621  -0.075012   0.149880   0.025442   0.080396
     31      -0.188515  -0.069058  -0.121986   0.187773   0.059654   0.149661
     32      -0.126500  -0.050801  -0.078131   0.126471   0.027011   0.089565
     33      -0.032008  -0.064946   0.131336   0.059308   0.161704   0.172689
     34      -0.071273  -0.068912   0.214418   0.044376   0.224127   0.148822
     35      -0.076697  -0.042165   0.155078   0.032034   0.177169   0.089094
     36       0.031586  -0.009633   0.017312  -0.007251  -0.059874  -0.065224
     37       0.016703  -0.029405  -0.004021  -0.063776  -0.060621  -0.088112
     38       0.023089  -0.005114   0.004839   0.003657  -0.015051  -0.022253
     39      -0.024069  -0.009545  -0.086143  -0.135219   0.109262   0.008413
     40       0.039151   0.020993  -0.004018   0.032566   0.037052   0.035093
     41       0.006129   0.003815  -0.003097   0.002484   0.011943   0.004452
     42      -0.221665   0.011277  -0.077455   0.052454   0.214681   0.185226
     43      -0.197381   0.044561  -0.077743   0.082968   0.326315   0.222540
     44      -0.009972   0.004519  -0.008898   0.017475   0.037320   0.023321
     45      -0.017206   0.069733   0.068624   0.303652   0.033211   0.207289
     46      -0.064718   0.116719   0.080450   0.429928   0.118943   0.400116
     47       0.007703   0.022124   0.007915   0.010415   0.028382   0.061619
     48       0.034901   0.020191   0.008898   0.054045   0.003848   0.004559
     49      -0.146214  -0.028319   0.023064  -0.016194  -0.081704  -0.027317
     50      -0.036764   0.002189  -0.006710  -0.000576   0.004760   0.005550
     51      -0.309299   0.010779   0.224857   0.389548  -0.263944   0.072245
     52       0.063833   0.033225  -0.018677   0.036018   0.068158   0.050121
     53      -0.034289  -0.022184   0.008179  -0.033333  -0.031276  -0.030333
     54       0.425288   0.056501   0.328723   0.465285  -0.416727  -0.082186
     55      -0.071376  -0.013016  -0.005971  -0.016704  -0.031219  -0.016513
     56       0.000502  -0.000764   0.005590   0.005734  -0.010160  -0.007139
     57       0.089731   0.006135   0.014953  -0.063950  -0.024257   0.060447
     58       0.078076  -0.027429   0.007160  -0.030830   0.017216  -0.014716
     59       0.024584  -0.009630   0.000553  -0.022724   0.003448   0.002235
     60      -0.243768  -0.070608  -0.017511  -0.137498  -0.031305   0.030269
     61       0.421509   0.140964  -0.006806   0.177606   0.146205   0.078441
     62      -0.042501  -0.000103  -0.001255   0.007156  -0.005650  -0.001786
     63      -0.116360  -0.054307   0.106987   0.029425  -0.200162  -0.042489
     64       0.222449   0.126619  -0.177848   0.041111   0.368867   0.099896
     65      -0.012193  -0.010258   0.013705   0.002550  -0.008511   0.017495
     66       0.059634  -0.011752   0.002757  -0.025176  -0.009664   0.050146
     67       0.013011   0.010294   0.004005  -0.007012   0.021904  -0.011569
     68       0.009146   0.001870   0.000269  -0.004103   0.004939   0.001568
     69      -0.050318  -0.040093   0.008718  -0.015336  -0.045539  -0.036920
     70       0.029082   0.004730   0.006009  -0.033035  -0.038009   0.088961
     71       0.003388  -0.003243   0.003271  -0.010588  -0.016270   0.020839
     72       0.007295  -0.063122  -0.003566   0.047490   0.047166  -0.068733
     73      -0.053439   0.018876  -0.012113   0.059171   0.028101  -0.069451
     74      -0.014020  -0.000885  -0.003799   0.022025   0.013065  -0.027200
     75       0.001685   0.010080  -0.005575   0.015130   0.022588  -0.002826
     76       0.004139   0.010642  -0.001083   0.002393   0.008597  -0.003270
     77       0.001138   0.004437  -0.001221   0.002316   0.005359  -0.001418
     78       0.002789   0.020929  -0.000365   0.001727   0.006392   0.023618
     79      -0.008887  -0.025250   0.002579  -0.008103  -0.014696  -0.021305
     80      -0.001910  -0.004434   0.000552  -0.001276  -0.002775  -0.003847
     81      -0.012431   0.015789  -0.000738  -0.001593  -0.003953   0.008512
     82       0.017988  -0.048236   0.001192   0.002077   0.008237  -0.046731
     83       0.003386  -0.009778   0.000210  -0.000228   0.001135  -0.012136
     84      -0.015962   0.066203   0.007738  -0.050284  -0.050947   0.066681
     85       0.002188   0.039121   0.001421   0.000296   0.008082   0.090588
     86      -0.000504   0.008842   0.002500  -0.006470  -0.004126   0.037309
     87       0.002524  -0.011687  -0.000410   0.001363  -0.001417  -0.017049
     88       0.003418  -0.003991  -0.001456   0.004974   0.005071  -0.011328
     89       0.001176  -0.002646  -0.000371   0.001322   0.001060  -0.004697
     90       0.009512  -0.008920  -0.004882   0.023547   0.024730  -0.014044
     91      -0.008382   0.064380  -0.004382  -0.009105  -0.010723  -0.013334
     92      -0.006652   0.085763  -0.008488   0.002168   0.000939  -0.011936
     93      -0.002958   0.060903  -0.008733   0.011105   0.010401  -0.036706
     94       0.002600  -0.036074   0.004122  -0.002926  -0.002285   0.011176
     95       0.001200  -0.000846  -0.001353   0.004408   0.004599  -0.015960
     96       0.007587  -0.052683   0.004042   0.003201   0.005019   0.003939
     97      -0.006607   0.036940  -0.002572  -0.004914  -0.006722  -0.012504
     98      -0.001941   0.003871  -0.000350  -0.002537  -0.003468  -0.015813
     99      -0.006331   0.030118   0.000657  -0.007928  -0.007674   0.035671
    100       0.004349  -0.019074  -0.000154   0.006216   0.006626  -0.012683
    101       0.000745  -0.001974   0.000401   0.001865   0.002635   0.012231
    102       0.004154  -0.040499   0.003526  -0.000125   0.000003   0.006629
    103       0.002392  -0.016686   0.001728   0.000074   0.000890   0.012070
    104       0.006217  -0.052717   0.004923   0.000075   0.001186   0.020555
    105      -0.000193  -0.008179   0.000819  -0.002515  -0.002571  -0.008520
    106      -0.002460   0.001019   0.001943  -0.005928  -0.006346   0.016523
    107      -0.003045  -0.005693   0.003061  -0.009294  -0.009873   0.013053
    108      -0.034476   0.346274  -0.036287  -0.003683  -0.013359  -0.193215
    109       0.048828  -0.459606   0.046716   0.005713   0.019299   0.223292
    110       0.031718  -0.321145   0.032633   0.002633   0.010830   0.144861
    111      -0.002461  -0.106539   0.020303  -0.036265  -0.036112   0.092827
    112       0.000755   0.141567  -0.025834   0.041669   0.040798  -0.130568
    113      -0.000904   0.089458  -0.015920   0.023309   0.022425  -0.089004
    114      -0.004196   0.077576  -0.015696   0.018563   0.013982  -0.134972
    115      -0.004640   0.091857  -0.016445   0.018880   0.015489  -0.121594
    116      -0.009862   0.180962  -0.033134   0.037425   0.029369  -0.258684
    117       0.021335  -0.411323   0.053004  -0.056786  -0.052582   0.173610
    118      -0.004057   0.100940  -0.014279   0.017122   0.016160  -0.058869
    119       0.009366  -0.168881   0.021049  -0.020235  -0.018127   0.065080
    120      -0.198179   0.105799   0.025057  -0.121204  -0.192077   0.151900
    121       0.036701   0.003524   0.001803   0.000781   0.039867  -0.022039
    122      -0.006806   0.008681   0.004285  -0.010930  -0.006771   0.009952
    123      -0.015217  -0.219535  -0.028616   0.156592   0.101612  -0.375384
    124       0.020119  -0.034015   0.002997  -0.007583   0.003420  -0.023023
    125       0.004934  -0.039061  -0.002490   0.016739   0.014375  -0.052438
                 90         91         92         93         94         95    
      0       0.052108   0.002780   0.004271  -0.023709  -0.002914   0.009990
      1       0.086620   0.054278  -0.056322   0.023925  -0.003739  -0.017555
      2       0.041739   0.038716  -0.042397   0.024403  -0.002000  -0.018824
      3      -0.025198  -0.010180   0.007479  -0.001759  -0.008815  -0.025714
      4      -0.023415  -0.008211   0.007548   0.000419   0.003602   0.007646
      5      -0.017733  -0.007640   0.005753  -0.005057  -0.015995  -0.043234
      6       0.028948   0.056803  -0.060632  -0.008891   0.015750   0.029523
      7      -0.010198  -0.024473   0.014304   0.071570   0.033445   0.019909
      8       0.017934   0.013241  -0.012614  -0.010633  -0.003965  -0.004281
      9      -0.032689  -0.053745   0.056678   0.055309   0.139352   0.369507
     10       0.086132   0.008723  -0.001423  -0.006103   0.031283   0.108938
     11       0.018024  -0.017210   0.019673   0.009159   0.038682   0.113587
     12      -0.021051  -0.020970   0.019842   0.002498  -0.001984  -0.002950
     13      -0.028362   0.021175  -0.027207  -0.013549  -0.028093  -0.093413
     14      -0.070417  -0.071759   0.073286   0.049809   0.146744   0.397294
     15       0.042595  -0.080699   0.115421   0.047202  -0.024111  -0.055274
     16      -0.020601   0.092003  -0.083370  -0.038738   0.015178   0.061691
     17      -0.003565   0.017766  -0.012154  -0.008831   0.000884   0.011392
     18      -0.173767  -0.214061   0.189883  -0.121756  -0.139117  -0.206564
     19       0.029989   0.050472  -0.030610  -0.348227  -0.196188  -0.191424
     20      -0.054975  -0.099058   0.066703   0.395214   0.205346   0.174527
     21      -0.091365  -0.078275   0.055497   0.027517   0.002817  -0.004229
     22      -0.022927   0.068670  -0.042176  -0.494143  -0.267586  -0.245934
     23      -0.037677   0.006193   0.003702  -0.268250  -0.154015  -0.146562
     24       0.111778  -0.007325   0.043648  -0.047513   0.008910   0.040171
     25       0.046365  -0.009748  -0.010003   0.039716  -0.002851  -0.026066
     26       0.025378  -0.003413   0.001862   0.006982   0.000223  -0.002557
     27      -0.027859   0.056676  -0.061962   0.044756  -0.006661  -0.032164
     28      -0.034525  -0.040840   0.053591  -0.021056   0.000653   0.002941
     29      -0.011956  -0.013282   0.017921  -0.006450  -0.000614   0.004110
     30      -0.129810  -0.030538  -0.015789   0.119026   0.024734  -0.045962
     31      -0.212219  -0.220060   0.260732  -0.198579   0.020186   0.174290
     32      -0.127983  -0.077989   0.072994  -0.014650   0.015930   0.035424
     33      -0.296118  -0.131964   0.086917   0.058925   0.008393  -0.065465
     34      -0.287489  -0.166706   0.145297  -0.022274   0.006037  -0.003086
     35      -0.187245  -0.212324   0.255290  -0.217893  -0.003684   0.135338
     36       0.015104  -0.054329   0.056421  -0.040085   0.004878   0.032733
     37       0.017549  -0.022627   0.009232  -0.006556  -0.008613   0.013830
     38       0.010548   0.009892  -0.018309   0.015693  -0.005991  -0.011008
     39      -0.005934   0.006303  -0.008142  -0.002584   0.005861   0.000215
     40       0.003777   0.008976  -0.002377   0.001644  -0.021797   0.026570
     41      -0.000545   0.001768  -0.004199   0.000230   0.016797  -0.018962
     42      -0.050303   0.198287  -0.259055   0.224602  -0.041651  -0.197114
     43      -0.037652   0.074861  -0.021653  -0.031509   0.067307   0.002893
     44       0.001161   0.030096  -0.033942   0.023979   0.000133  -0.022904
     45      -0.019163   0.142922  -0.141038   0.111031  -0.022274  -0.086616
     46      -0.055720   0.222253  -0.167077   0.086926  -0.000858  -0.052843
     47      -0.017116  -0.072135   0.157799  -0.178732   0.067131   0.150987
     48       0.041757   0.016285   0.016750  -0.021290   0.048373  -0.024910
     49      -0.023515  -0.024428   0.008510  -0.013624   0.020218   0.014106
     50       0.007184   0.001831   0.007831  -0.016073   0.034207  -0.009816
     51      -0.041898  -0.003219   0.010718   0.014970   0.008029  -0.019075
     52       0.016043   0.038028  -0.032571   0.006639   0.099965  -0.125437
     53      -0.019954  -0.053652   0.054074  -0.011125  -0.226460   0.289145
     54       0.051748  -0.017795   0.007482   0.018096  -0.031023   0.000287
     55       0.021237   0.048334  -0.049294   0.008350   0.243141  -0.305516
     56       0.001769   0.003607  -0.008027   0.000618   0.045204  -0.054502
     57      -0.112653  -0.035554  -0.031071  -0.015343   0.010865   0.038525
     58      -0.038623   0.011249  -0.000442   0.006254  -0.003102  -0.045067
     59      -0.024893  -0.000669  -0.002985  -0.001327   0.002301  -0.008263
     60      -0.144264  -0.027755  -0.114422   0.222269  -0.489451   0.194263
     61       0.124310   0.042540  -0.050949   0.104462  -0.225948   0.071269
     62       0.012872   0.002900   0.019374  -0.037584   0.084120  -0.031011
     63      -0.094206  -0.044964  -0.032741   0.077506  -0.173306   0.077588
     64       0.216421   0.105698  -0.012566   0.052051  -0.103424   0.002750
     65      -0.048741  -0.007695  -0.110222   0.241448  -0.524112   0.187911
     66      -0.087709  -0.012807  -0.017648   0.003304   0.013211   0.004076
     67       0.015067  -0.047502   0.071236   0.026592  -0.006698  -0.043504
     68      -0.004139  -0.015031   0.018394   0.007923  -0.000654  -0.011814
     69      -0.014739   0.010997   0.021234   0.035180  -0.004400  -0.071059
     70      -0.049270   0.042353  -0.017639  -0.002803   0.019626   0.004011
     71      -0.015880   0.013349  -0.002439   0.003433   0.004715  -0.007037
     72      -0.004084   0.092900  -0.116624  -0.049613   0.010255   0.044047
     73       0.062788  -0.060714   0.008348  -0.011614  -0.019273   0.050025
     74       0.017390  -0.006679  -0.012003  -0.009333  -0.004255   0.018423
     75       0.030068  -0.000702   0.008257  -0.001594  -0.002890   0.007041
     76       0.010917  -0.012860   0.007966  -0.000572  -0.002750   0.002386
     77       0.006709  -0.004085   0.003082  -0.000324  -0.000899   0.001305
     78       0.032988  -0.002275   0.020737  -0.010523  -0.003404   0.022919
     79      -0.032891   0.002623   0.001141   0.012811   0.000582  -0.023177
     80      -0.005324   0.000565   0.000924   0.001605  -0.000117  -0.002902
     81       0.020582   0.007237  -0.005131  -0.020955  -0.000318   0.037988
     82      -0.065364   0.032124  -0.069547  -0.011008   0.010863  -0.009881
     83      -0.017102   0.007697  -0.021814  -0.005298   0.003159   0.001092
     84       0.014246  -0.064620   0.098296   0.052843  -0.008950  -0.061237
     85       0.111664   0.023224   0.095975  -0.000673  -0.010013   0.025599
     86       0.037488   0.010515   0.052088   0.006718  -0.004719   0.001182
     87      -0.027903   0.001077  -0.029927  -0.001552   0.004087  -0.003695
     88      -0.011235   0.000696  -0.021915  -0.005108   0.002404   0.004031
     89      -0.006027   0.000512  -0.008605  -0.001410   0.001060   0.000574
     90       0.009925  -0.006991  -0.030970  -0.007788   0.001058   0.005695
     91      -0.028877  -0.088037  -0.083227   0.000070   0.005452  -0.012557
     92      -0.013835  -0.116413  -0.107706  -0.001987   0.005617  -0.012371
     93      -0.033046   0.005753  -0.029223  -0.010020   0.002779   0.009595
     94       0.011048   0.030052   0.029463  -0.000220  -0.001373   0.005155
     95      -0.014434   0.041385   0.012679  -0.007737   0.000632   0.012953
     96       0.008497   0.076518   0.058926  -0.003667  -0.002706   0.014310
     97      -0.021540  -0.006715   0.013774   0.009500  -0.001385  -0.013491
     98      -0.022949   0.053563   0.062310   0.008447  -0.003730  -0.005194
     99       0.036407  -0.121993  -0.108374  -0.005890   0.005948  -0.004457
    100      -0.008885   0.060703   0.046328  -0.001549  -0.002307   0.008731
    101       0.017983  -0.019445  -0.028406  -0.007147   0.001923   0.008041
    102       0.008015   0.012470   0.026123   0.007964  -0.002377  -0.009438
    103       0.015386  -0.043099  -0.053598  -0.005895   0.003637   0.000890
    104       0.026024  -0.044987  -0.047119  -0.001118   0.002695  -0.006379
    105      -0.013069   0.032787   0.017129  -0.004781   0.000342   0.009933
    106       0.013381  -0.007860   0.032928   0.014154  -0.004033  -0.016060
    107       0.005314   0.016069   0.053894   0.013957  -0.004687  -0.012516
    108      -0.254439   0.148150   0.191846   0.042155  -0.011884  -0.044785
    109       0.294116  -0.074142  -0.148415  -0.050640   0.010734   0.063233
    110       0.191056   0.002063  -0.034538  -0.027149   0.002897   0.042118
    111       0.074570  -0.031695   0.091576   0.040320  -0.010112  -0.045309
    112      -0.115789   0.091977  -0.064491  -0.048949   0.010411   0.062154
    113      -0.084603   0.094760  -0.004129  -0.029770   0.004812   0.043209
    114      -0.148369   0.284518   0.243704   0.007152  -0.012301   0.021237
    115      -0.130817   0.208559   0.140203  -0.009204  -0.004778   0.031846
    116      -0.281863   0.487490   0.374480  -0.004210  -0.016269   0.055441
    117       0.154326   0.151275   0.299350   0.056956  -0.022103  -0.039897
    118      -0.054617  -0.011472  -0.074756  -0.021734   0.006895   0.020739
    119       0.059895   0.100989   0.141514   0.016354  -0.009092  -0.002603
    120       0.200275   0.219599  -0.033324  -0.016786  -0.000157  -0.017938
    121      -0.009236  -0.079678   0.084566   0.032968  -0.007499  -0.047474
    122       0.013699  -0.000022   0.019080   0.010393   0.000326  -0.012676
    123      -0.210360  -0.136831  -0.174391   0.024098  -0.003105  -0.051854
    124      -0.051527   0.042272  -0.072975  -0.018803   0.012676  -0.000050
    125      -0.041594   0.019571  -0.023452  -0.003265   0.002240  -0.002957
                 96         97         98         99        100        101    
      0      -0.006153   0.012005   0.035006  -0.043689   0.015905   0.041087
      1       0.001714  -0.018177  -0.015115   0.038226   0.003741   0.029110
      2       0.007396  -0.010518  -0.020473   0.040695  -0.002035   0.009301
      3       0.028110   0.034665   0.009187  -0.011192   0.000729  -0.001989
      4       0.003644   0.008305  -0.000673  -0.003693  -0.000351  -0.007831
      5       0.040288   0.049646   0.008352  -0.007152  -0.000445  -0.003728
      6       0.008718   0.019027  -0.000689   0.001806   0.016706  -0.006439
      7       0.019445   0.025108   0.007415  -0.015001   0.000240   0.009326
      8       0.000558   0.000870   0.000811   0.002918   0.002777   0.003104
      9      -0.351686  -0.422189  -0.084465   0.076601  -0.019998  -0.010206
     10      -0.133978  -0.159430  -0.007557   0.008816   0.003269   0.028161
     11      -0.127245  -0.152733  -0.022818   0.025101  -0.005949   0.006594
     12       0.005737   0.013017   0.008333  -0.010393   0.000701   0.006009
     13       0.107448   0.125029   0.017234  -0.021068   0.005244  -0.019569
     14      -0.377802  -0.453473  -0.081337   0.065607  -0.020888  -0.016309
     15      -0.005186  -0.033361  -0.011535  -0.020958  -0.050919  -0.009251
     16       0.006523   0.019596  -0.004181  -0.029123   0.023003  -0.046633
     17      -0.000635   0.000093  -0.002498  -0.008969   0.001521  -0.012795
     18      -0.059756  -0.098593  -0.000125   0.100605  -0.049467   0.060535
     19      -0.097504  -0.137602  -0.018696   0.119586  -0.008718   0.031447
     20       0.112050   0.152766   0.027280  -0.121643   0.003267  -0.012753
     21      -0.019736  -0.022783   0.013916   0.004607  -0.003242   0.034369
     22      -0.135255  -0.183851  -0.032715   0.168303  -0.012375   0.018557
     23      -0.084241  -0.115516  -0.012989   0.094230  -0.010747   0.025089
     24       0.002803   0.019233  -0.009400  -0.043243   0.006952  -0.112162
     25      -0.004184  -0.012788   0.009579   0.045616   0.010670   0.107533
     26      -0.000818  -0.000889   0.001670   0.007449   0.004010   0.018409
     27      -0.001799  -0.036114  -0.002893  -0.012080   0.007141   0.106251
     28      -0.005343   0.010602   0.004262  -0.021017  -0.015387  -0.077769
     29      -0.001583   0.000673   0.001548  -0.009198  -0.007110  -0.033096
     30       0.063764  -0.026303  -0.277581   0.405036  -0.118029  -0.412908
     31      -0.070295   0.075686   0.230265  -0.404778   0.063443   0.096303
     32       0.005411   0.013450  -0.037913   0.030535  -0.027666  -0.137347
     33       0.070996   0.030826  -0.200606   0.309559  -0.112458  -0.397516
     34       0.024707   0.040402  -0.059576   0.086134  -0.058610  -0.239796
     35      -0.071418   0.088886   0.297690  -0.476519   0.087767   0.208024
     36       0.006934   0.032608  -0.047348  -0.007172   0.006876  -0.009111
     37      -0.002511   0.005335   0.024423   0.004491  -0.006562  -0.039434
     38      -0.010697  -0.007400   0.036499   0.007483  -0.006283  -0.016954
     39       0.005149  -0.003247   0.000640   0.008599   0.001572   0.006642
     40       0.054711  -0.044693   0.015580   0.006516   0.000215   0.006430
     41      -0.029481   0.023127  -0.002616   0.002911   0.000790   0.000879
     42      -0.115406  -0.136124   0.459059   0.077101  -0.085557  -0.190625
     43       0.057226   0.030922  -0.309384  -0.004596   0.090127   0.373489
     44      -0.012060  -0.012876   0.033024   0.008796  -0.004223  -0.001757
     45      -0.027251  -0.079466   0.138027   0.008286  -0.018374   0.010924
     46       0.051228  -0.092931  -0.094223  -0.034609   0.041348   0.263569
     47       0.133631   0.102365  -0.541935  -0.078468   0.120297   0.390962
     48       0.022902  -0.030589   0.005454  -0.019017  -0.005197  -0.016081
     49       0.010366   0.005846   0.015439   0.043694   0.003406   0.017276
     50       0.011930  -0.009686   0.006805   0.010237  -0.000345   0.002752
     51      -0.008679   0.003733  -0.012037  -0.001959   0.001783   0.029254
     52      -0.181896   0.129795  -0.032551  -0.015394   0.002759   0.000765
     53       0.454602  -0.336575   0.103257   0.051230  -0.005744   0.007838
     54      -0.035965   0.019547   0.021429  -0.013468  -0.007355  -0.028245
     55      -0.484578   0.357569  -0.114724  -0.061362   0.003321  -0.017105
     56      -0.088627   0.067536  -0.014924  -0.003686   0.000695  -0.003662
     57      -0.009357   0.052617   0.049568   0.141207   0.011436   0.063790
     58       0.003492  -0.029680  -0.026059  -0.071625  -0.015503  -0.035637
     59       0.002192  -0.003915  -0.001273  -0.003641  -0.003025  -0.002384
     60      -0.174353   0.175087  -0.119216  -0.095426   0.025702   0.007485
     61      -0.103570   0.080569  -0.057644  -0.103516   0.012308  -0.040358
     62       0.030277  -0.028877   0.018728   0.020050  -0.003917   0.003229
     63      -0.066060   0.074244  -0.025157  -0.002063   0.007270   0.008529
     64      -0.014091  -0.030019  -0.070776  -0.178326  -0.000958  -0.069556
     65      -0.196152   0.177489  -0.132614  -0.153373   0.022435  -0.027050
     66      -0.003307   0.009040   0.016941   0.041394   0.019793   0.053837
     67      -0.000274  -0.023897  -0.009748  -0.025643  -0.026331  -0.006776
     68      -0.000519  -0.005762  -0.000956  -0.002625  -0.005315   0.003759
     69       0.010385  -0.063722  -0.040626  -0.112084  -0.030231  -0.021710
     70       0.003985  -0.008392  -0.000276  -0.018287   0.004894   0.003718
     71       0.002351  -0.009791  -0.004870  -0.018388  -0.002215  -0.001651
     72       0.007693   0.014912  -0.007581  -0.026042   0.054239  -0.038578
     73      -0.011926   0.055012   0.036144   0.120913   0.002931   0.030691
     74      -0.002480   0.016688   0.008988   0.030268   0.007319   0.003889
     75      -0.002384   0.006331   0.002942   0.009590   0.008285   0.002948
     76      -0.001567   0.005337   0.003527   0.012031  -0.001849   0.002435
     77      -0.000599   0.002038   0.001311   0.004357   0.000410   0.001057
     78      -0.003239   0.023934   0.008419   0.023796  -0.012855  -0.012384
     79       0.002524  -0.020156  -0.011374  -0.032447  -0.010866  -0.001339
     80       0.000335  -0.002241  -0.002114  -0.006107  -0.003472  -0.002631
     81      -0.001630   0.032646   0.006689   0.014621  -0.039685  -0.041774
     82       0.008314  -0.019907  -0.019088  -0.061109   0.011205  -0.028342
     83       0.002232  -0.002219  -0.004745  -0.015959  -0.002297  -0.012415
     84      -0.003403  -0.037458  -0.000872   0.004806  -0.037377   0.069380
     85      -0.008352   0.029800   0.019616   0.059578   0.015553   0.012259
     86      -0.003260   0.005425   0.006310   0.019899  -0.004964   0.013439
     87       0.002195  -0.007140  -0.002450  -0.008208   0.009201   0.002409
     88       0.000915   0.000818   0.000315   0.000003   0.007634  -0.001511
     89       0.000471  -0.000611  -0.000167  -0.000825   0.002904   0.000013
     90      -0.000096   0.001988   0.001075   0.005792   0.112120  -0.027805
     91       0.003668  -0.011952  -0.006983  -0.021525  -0.040935   0.009345
     92       0.003236  -0.012266  -0.005658  -0.015157   0.031317  -0.004220
     93       0.001383   0.004803  -0.001006  -0.004862  -0.008119  -0.009025
     94      -0.000753   0.005180   0.001449   0.002588  -0.049036   0.009982
     95       0.000310   0.009330   0.000572  -0.001915  -0.068763   0.005755
     96      -0.001844   0.012343   0.004460   0.010936  -0.047986   0.009955
     97      -0.000378  -0.009801  -0.001466  -0.001278   0.067067  -0.011793
     98      -0.001845  -0.002422   0.001538   0.006585   0.049205  -0.008484
     99       0.003433  -0.005312  -0.005283  -0.017442  -0.059002   0.009339
    100      -0.001513   0.007601   0.003257   0.008850  -0.013811   0.003931
    101       0.000869   0.005696  -0.000137  -0.002993  -0.065145   0.011940
    102      -0.001292  -0.006894   0.000949   0.006913   0.107149  -0.019293
    103       0.002125  -0.001479  -0.003213  -0.011036  -0.022771  -0.002849
    104       0.001643  -0.007333  -0.003272  -0.008350   0.056743  -0.018948
    105       0.000381   0.008252  -0.000150  -0.004942  -0.118114   0.020899
    106      -0.002357  -0.010290   0.002519   0.013912   0.138038  -0.015496
    107      -0.002587  -0.006669   0.002911   0.013177   0.080972  -0.003210
    108      -0.005333  -0.030200   0.000586   0.015221   0.327173  -0.054205
    109       0.004391   0.044290   0.002373  -0.010105  -0.384798   0.058445
    110       0.000528   0.032149   0.005279   0.005207  -0.251150   0.043963
    111      -0.005270  -0.028173   0.003953   0.025379   0.252750  -0.019423
    112       0.005475   0.041510  -0.002988  -0.028280  -0.395616   0.045011
    113       0.002540   0.030806  -0.000364  -0.014777  -0.298332   0.040742
    114      -0.006936   0.022300   0.011440   0.032053  -0.053049   0.021021
    115      -0.002671   0.027013   0.006028   0.009945  -0.187032   0.035255
    116      -0.009136   0.050981   0.017101   0.039624  -0.276054   0.062913
    117      -0.011771  -0.016997   0.013308   0.052894   0.210096   0.002240
    118       0.003771   0.011815  -0.003944  -0.018792  -0.129773   0.007302
    119      -0.004962   0.003862   0.006962   0.022236  -0.002075   0.013189
    120       0.025217  -0.070976  -0.080366  -0.241526  -0.035773  -0.147657
    121      -0.003597  -0.018732  -0.001077   0.001059  -0.025745   0.013314
    122       0.002328  -0.011828  -0.007915  -0.025596  -0.009970  -0.011385
    123       0.000379  -0.043392   0.006748   0.042948   0.085247   0.104265
    124       0.009072  -0.013137  -0.020521  -0.068358   0.001577  -0.044990
    125       0.002119  -0.006323  -0.003889  -0.011019   0.019193  -0.003888
                102        103        104        105        106        107    
      0       0.016642  -0.002086   0.012867  -0.004667  -0.014446  -0.008108
      1       0.020064  -0.006049  -0.011101   0.004139  -0.009074  -0.004917
      2       0.005404  -0.002084   0.000858  -0.000285  -0.007911  -0.004966
      3      -0.000591  -0.000166  -0.007829   0.002874   0.007961   0.005296
      4      -0.006256   0.001986   0.003730  -0.001337   0.004378   0.000196
      5       0.001815   0.000279   0.002621  -0.000894  -0.001193  -0.000515
      6       0.032289   0.002532  -0.020926   0.007037   0.044387   0.022940
      7       0.006831  -0.003879  -0.007891   0.003118  -0.010634  -0.005201
      8       0.008230  -0.000816  -0.004667   0.001636   0.002911   0.002240
      9      -0.038087   0.002491   0.014588  -0.005423  -0.013445  -0.009563
     10      -0.006961  -0.001433  -0.007239   0.002537   0.003797   0.005643
     11      -0.008025  -0.000490   0.004573  -0.001656  -0.008162  -0.002319
     12      -0.010351   0.001473   0.007864  -0.002641   0.001469  -0.000510
     13       0.033084  -0.002919  -0.032586   0.011434   0.019430   0.016130
     14      -0.053198   0.003230  -0.006557   0.002188   0.009449   0.004449
     15      -0.135063   0.002993   0.172429  -0.063292  -0.242655  -0.159442
     16      -0.087627   0.038851   0.045951  -0.019326   0.151322   0.097779
     17      -0.036140   0.010415   0.027411  -0.010657   0.018099   0.010320
     18       0.006030  -0.032897  -0.034207   0.014735  -0.126878  -0.073302
     19       0.040102  -0.014523  -0.045733   0.016886  -0.011457  -0.002832
     20      -0.030189   0.006987   0.038722  -0.014033  -0.017586  -0.012156
     21       0.000471  -0.011893  -0.054188   0.020937   0.006055  -0.006165
     22       0.040222  -0.013375  -0.056420   0.020879   0.007137   0.003609
     23       0.013563  -0.012239  -0.049694   0.019032   0.000951  -0.001893
     24       0.277567  -0.013777  -0.090518   0.036993   0.090448   0.053858
     25       0.164276  -0.052074  -0.142333   0.055452  -0.067224  -0.046134
     26       0.077030  -0.015737  -0.047137   0.018553  -0.009696  -0.006886
     27      -0.155394   0.000488  -0.009733   0.002770  -0.013921  -0.001163
     28      -0.003303   0.015049   0.059948  -0.022167   0.002155   0.001505
     29      -0.013976   0.005610   0.010408  -0.003975   0.008676   0.005330
     30       0.110970   0.011967  -0.051181   0.018396   0.088026   0.040057
     31      -0.039767   0.003566  -0.002872   0.001011   0.015772   0.010411
     32       0.021735   0.006976  -0.025450   0.009291   0.047355   0.023475
     33       0.077822   0.023494   0.031535  -0.011499   0.055303   0.023062
     34       0.044307   0.015371   0.009062  -0.003151   0.047628   0.023777
     35      -0.063432  -0.000490   0.020699  -0.007578  -0.019052  -0.003170
     36       0.040129  -0.002672  -0.010463   0.004104   0.005585   0.001861
     37       0.014883  -0.000534  -0.023108   0.008371   0.019561   0.010199
     38       0.008821  -0.000990  -0.007287   0.002693   0.003196   0.000594
     39      -0.012776   0.001686   0.005397  -0.002196   0.001177   0.000302
     40       0.001332  -0.000389   0.004621  -0.001737  -0.005594  -0.005633
     41       0.005687  -0.000011   0.005162  -0.002016  -0.003747  -0.002232
     42       0.016992   0.006212   0.010828  -0.003931   0.005845   0.000077
     43      -0.068139  -0.015857   0.050408  -0.018340  -0.098137  -0.045127
     44      -0.001417  -0.000560  -0.003461   0.001422   0.001732   0.000715
     45      -0.044248   0.000344   0.011575  -0.004139  -0.017457  -0.011366
     46      -0.212644   0.000141   0.030003  -0.011695  -0.048812  -0.019858
     47      -0.131753  -0.008846   0.023109  -0.009053  -0.056180  -0.019833
     48      -0.000736   0.000814  -0.013375   0.005701   0.015504   0.012696
     49       0.041266  -0.008718  -0.004677   0.001639  -0.026270  -0.019271
     50       0.006701  -0.001674  -0.002416   0.001082  -0.003702  -0.003033
     51       0.035617  -0.008921  -0.006528   0.003546  -0.024613  -0.009885
     52       0.000648   0.002637   0.018933  -0.007096  -0.006411  -0.006926
     53       0.007749  -0.006955  -0.030464   0.011379  -0.000382  -0.001482
     54       0.024261  -0.002572  -0.006580   0.002491  -0.004708  -0.006779
     55      -0.014466   0.005828   0.011030  -0.003868   0.011248   0.008920
     56       0.005213   0.000828   0.006938  -0.002717  -0.002015  -0.000108
     57      -0.025591  -0.002331   0.117213  -0.048124  -0.148202  -0.145503
     58      -0.286591   0.047225   0.046386  -0.018723   0.129299   0.117370
     59      -0.083962   0.012796   0.026008  -0.010726   0.018905   0.015327
     60       0.128558  -0.012753  -0.019888   0.007724  -0.013339  -0.009113
     61       0.164259  -0.009393  -0.022128   0.009718   0.012718   0.007295
     62      -0.021476   0.000627  -0.001637   0.000684   0.000748   0.001721
     63       0.056033  -0.008969  -0.004993   0.001258  -0.028444  -0.011318
     64       0.066487   0.003087  -0.062551   0.026586   0.092074   0.059895
     65       0.162061  -0.011916  -0.038052   0.015011   0.015123   0.013346
     66       0.104856  -0.028336  -0.269386   0.104930   0.246980   0.233428
     67       0.039327  -0.018884  -0.002625   0.003924  -0.115029  -0.060543
     68       0.021482  -0.008157  -0.029562   0.012058  -0.005754   0.008472
     69      -0.168887   0.006894  -0.094608   0.038390   0.081769   0.173429
     70       0.335519  -0.057024  -0.061290   0.025828  -0.207259  -0.200195
     71       0.074404  -0.015219  -0.027583   0.011582  -0.047981  -0.035921
     72       0.075954   0.060399   0.257015  -0.111115   0.030280  -0.183298
     73      -0.272255   0.034337   0.079112  -0.031959   0.111452   0.113450
     74      -0.067003   0.017701   0.051280  -0.021114   0.034127   0.010098
     75       0.049133   0.001479   0.017022  -0.009693   0.015347  -0.021793
     76      -0.031978   0.005051   0.013078  -0.007504   0.007183   0.066462
     77      -0.002654   0.001818   0.005800  -0.002979   0.004204   0.015726
     78      -0.172481  -0.011695  -0.113872   0.093643   0.162951  -0.455857
     79      -0.021371  -0.010297  -0.061144   0.064040   0.165091  -0.427639
     80      -0.027747  -0.003665  -0.032477   0.026127   0.059183  -0.163868
     81      -0.256644  -0.059845  -0.239430   0.101580  -0.307139   0.062658
     82       0.038718   0.010242  -0.014126   0.007038  -0.056199  -0.035003
     83      -0.017784  -0.002705  -0.030371   0.017231  -0.051643  -0.003287
     84       0.219105   0.003785   0.188251  -0.038556   0.251603   0.061821
     85      -0.021714  -0.011310   0.022419  -0.050287   0.038600   0.094033
     86       0.021401  -0.013597   0.032779  -0.023759   0.045511   0.037824
     87       0.083594   0.009122   0.057594  -0.054303  -0.141722   0.311235
     88       0.037605   0.005997   0.031681  -0.033697  -0.103176   0.213550
     89       0.019390   0.002829   0.014776  -0.014979  -0.042424   0.090076
     90      -0.049555   0.114189  -0.141287  -0.163443  -0.049311  -0.066375
     91       0.035558   0.097011   0.042149   0.132352  -0.002633   0.002405
     92       0.012376   0.201972  -0.044923   0.035830  -0.032464  -0.027031
     93      -0.024988  -0.170835   0.154304   0.276804  -0.005965   0.044231
     94       0.008834  -0.013449  -0.053002  -0.147316   0.017627  -0.007143
     95      -0.006627  -0.148144   0.054968   0.034227   0.020684   0.018807
     96       0.014211   0.023325   0.085934   0.176160  -0.011528   0.037782
     97      -0.019562  -0.107425  -0.065309  -0.189729   0.025995  -0.026293
     98      -0.017937  -0.118744  -0.020534  -0.104605   0.021019  -0.006118
     99       0.015314   0.062406  -0.072166  -0.130161   0.010135  -0.024591
    100       0.005633   0.047685   0.028926   0.082006  -0.012669   0.010036
    101       0.018437   0.110087  -0.021847   0.000869  -0.009920  -0.006404
    102      -0.027546  -0.110361   0.050203   0.072467  -0.001186   0.012614
    103      -0.012921  -0.146037   0.002198  -0.069630   0.022361  -0.001373
    104      -0.038009  -0.271685   0.042773  -0.030608   0.027226   0.009060
    105       0.025011   0.029621  -0.079199  -0.190912   0.021895  -0.015103
    106      -0.005637   0.121282   0.048193   0.189933  -0.037116   0.011677
    107       0.012759   0.176602  -0.001790   0.089479  -0.030019   0.001023
    108      -0.073819  -0.213357  -0.104897  -0.254699   0.012667  -0.034455
    109       0.070556   0.172123   0.139196   0.316195  -0.027162   0.055510
    110       0.053523   0.065952   0.126247   0.218764   0.007749   0.049623
    111       0.011412   0.250340  -0.023917   0.078433  -0.039998  -0.004968
    112       0.022294  -0.164130  -0.035949  -0.202640   0.049914  -0.005741
    113       0.033252  -0.012469  -0.068923  -0.198213   0.031437  -0.011616
    114       0.037424   0.279477  -0.014128   0.090163  -0.036213   0.006826
    115       0.045766   0.185872  -0.053352  -0.059991  -0.005472  -0.005334
    116       0.090384   0.454335  -0.072209  -0.001595  -0.030682  -0.001095
    117       0.046368   0.341402  -0.229710  -0.402673  -0.024301  -0.025181
    118      -0.016251  -0.174463   0.060719   0.066328   0.033636  -0.011428
    119       0.023405   0.026082  -0.080390  -0.226025   0.013536   0.012310
    120      -0.051529   0.037799   0.396138  -0.148576  -0.386169  -0.335977
    121       0.047560  -0.026515  -0.063832   0.027851  -0.065101  -0.002229
    122       0.011791  -0.003350   0.020342  -0.006355  -0.056149  -0.034630
    123       0.329259   0.151402   0.475671  -0.173527   0.458524  -0.064557
    124      -0.013118   0.001375  -0.072716   0.037431  -0.132442  -0.022693
    125       0.025078  -0.003074   0.026845  -0.028490   0.009821  -0.012426
                108        109        110        111        112        113    
      0      -0.028204   0.013617  -0.000606   0.000384  -0.008859   0.000051
      1      -0.013118   0.008151  -0.000958   0.000125   0.007260   0.000567
      2       0.060059  -0.031189   0.002927  -0.000678   0.000345  -0.000640
      3       0.003232  -0.001952   0.004799  -0.000568   0.015801  -0.001524
      4       0.002105  -0.001132   0.005795  -0.000458  -0.010022   0.000998
      5      -0.005363   0.002548  -0.012645   0.000719   0.065195  -0.006360
      6       0.001227  -0.000806  -0.024079   0.001768  -0.001821   0.000060
      7       0.002174  -0.001597  -0.046682   0.003312  -0.015118   0.001411
      8      -0.002458   0.001644   0.051407  -0.003765  -0.003463   0.000710
      9      -0.019396   0.009234  -0.045922   0.002636   0.221669  -0.021473
     10      -0.029430   0.014258  -0.062353   0.003633   0.297908  -0.028863
     11       0.072634  -0.034051   0.164585  -0.009623  -0.762292   0.073984
     12      -0.016230   0.010871  -0.013861   0.003973  -0.403309   0.038956
     13      -0.003228   0.002358  -0.007916   0.001775  -0.174178   0.016842
     14      -0.001518   0.000455  -0.004901   0.000392  -0.013534   0.001404
     15       0.000063   0.000436  -0.000612   0.000045  -0.000386   0.000026
     16       0.000229  -0.000818  -0.000238  -0.000143  -0.000331   0.000034
     17       0.000092  -0.000298   0.000088  -0.000084  -0.000227   0.000007
     18       0.000825  -0.000842  -0.028848   0.001899  -0.015948   0.001622
     19      -0.008125   0.006910   0.158858  -0.010991   0.136120  -0.014227
     20      -0.010622   0.008403   0.175085  -0.012072   0.135060  -0.014060
     21      -0.016042   0.010801   0.323947  -0.023598   0.035835  -0.002058
     22      -0.017593   0.012530   0.398607  -0.028884   0.042992  -0.002462
     23       0.036717  -0.026007  -0.796039   0.057558  -0.093171   0.005666
     24       0.000819  -0.002500   0.000061   0.000638   0.000255   0.000040
     25      -0.000580   0.001629   0.000478   0.000210   0.000153   0.000228
     26      -0.000056   0.000301   0.000145   0.000105   0.000002   0.000152
     27      -0.002626   0.002258   0.000044  -0.000171  -0.000521   0.000113
     28      -0.001654  -0.002803  -0.000105   0.000111  -0.000105  -0.000525
     29      -0.000890  -0.000342   0.000018  -0.000032  -0.000191   0.000020
     30       0.285793  -0.148549   0.012463  -0.003430   0.016081  -0.002791
     31       0.282643  -0.144463   0.011252  -0.003310   0.020360  -0.002826
     32      -0.774532   0.392172  -0.034561   0.008809  -0.050588   0.007099
     33       0.077796  -0.027161  -0.004089  -0.000996   0.088841   0.000988
     34      -0.106251   0.037497   0.003256   0.001255  -0.106970  -0.002379
     35       0.061722  -0.024318  -0.002653  -0.000572   0.048966   0.000430
     36       0.007986   0.013444  -0.000190  -0.000093   0.001874   0.008683
     37       0.000596   0.002277   0.000097   0.000659  -0.001086  -0.005240
     38      -0.032888  -0.066883   0.000449  -0.002730   0.000528  -0.001360
     39      -0.000355  -0.000708   0.000012   0.000232   0.000243   0.002481
     40       0.000100   0.000956  -0.000258  -0.000025   0.003887   0.042433
     41       0.003283   0.006581   0.001076   0.014669  -0.004905  -0.053510
     42      -0.029526  -0.058146   0.000244  -0.002985   0.000085  -0.001672
     43      -0.036015  -0.063946   0.000225  -0.002944  -0.000715  -0.006140
     44       0.437385   0.871119  -0.006003   0.032898   0.002736   0.059080
     45      -0.063003  -0.093997   0.001658   0.005185  -0.020679  -0.101296
     46       0.042399   0.066001  -0.001268  -0.004945   0.012908   0.068780
     47      -0.036828  -0.059093   0.000829   0.002514  -0.009181  -0.045366
     48       0.000223   0.000966  -0.001539  -0.020343  -0.001096  -0.011720
     49       0.000159   0.000498  -0.000686  -0.009433  -0.000514  -0.005594
     50       0.001208   0.003407  -0.005104  -0.071341  -0.000775  -0.004209
     51       0.001096   0.002958  -0.000250  -0.003352  -0.001037  -0.011384
     52      -0.005754  -0.016106   0.001037  -0.020785  -0.036890  -0.400892
     53      -0.001758  -0.006531   0.000923  -0.005857  -0.018944  -0.204830
     54       0.000246  -0.000239   0.000408   0.004662  -0.001532  -0.016901
     55       0.005639   0.010081   0.001783   0.022141  -0.008897  -0.096868
     56      -0.042317  -0.079310  -0.014395  -0.175634   0.077963   0.844722
     57      -0.000404   0.001064  -0.000159   0.000103   0.000025  -0.000136
     58       0.000202  -0.000004  -0.000154  -0.001110  -0.000088  -0.000665
     59       0.000019  -0.000028  -0.000041  -0.000424  -0.000004  -0.000126
     60      -0.000896  -0.002993   0.005903   0.082520   0.001084   0.007664
     61      -0.001468  -0.002863   0.003542   0.052135   0.000624   0.003886
     62      -0.014992  -0.044790   0.068468   0.953330   0.015132   0.115713
     63      -0.001847  -0.009720   0.011868   0.155423   0.012071   0.132983
     64      -0.001423  -0.005418   0.005106   0.068091   0.005583   0.062050
     65       0.001770   0.006780  -0.007163  -0.093738  -0.005997  -0.065563
     66      -0.000053  -0.000489   0.000626  -0.000082   0.000353   0.000020
     67       0.000016  -0.000042   0.000257  -0.000053   0.000321  -0.000003
     68       0.000017  -0.000102   0.000045  -0.000026   0.000155  -0.000005
     69       0.000256  -0.000369   0.000101  -0.001018  -0.000054  -0.000177
     70      -0.000288   0.000417   0.000085   0.000313   0.000076   0.000176
     71      -0.000041   0.000015   0.000052   0.000032   0.000022  -0.000008
     72      -0.000085   0.000580  -0.000453   0.000193  -0.000115  -0.000045
     73       0.000231  -0.000402  -0.000072  -0.000280  -0.000073  -0.000061
     74       0.000050  -0.000023  -0.000007  -0.000157  -0.000010  -0.000021
     75      -0.000056   0.000079  -0.000095   0.000307   0.000042  -0.000014
     76      -0.000015   0.000009  -0.000006   0.000054   0.000012   0.000089
     77      -0.000011   0.000014  -0.000017   0.000031   0.000003   0.000007
     78       0.000066  -0.000214   0.000129  -0.000152  -0.000035   0.000116
     79       0.000105  -0.000411   0.000080   0.000001   0.000002   0.000043
     80       0.000032  -0.000122   0.000035  -0.000013  -0.000003   0.000025
     81       0.000170  -0.000587   0.000172  -0.000171   0.000002   0.000036
     82       0.000002  -0.000008   0.000023  -0.000067  -0.000004   0.000024
     83       0.000021  -0.000071   0.000033  -0.000041  -0.000004   0.000010
     84      -0.000103   0.000354  -0.000097   0.000094   0.000010  -0.000036
     85      -0.000073   0.000274  -0.000062   0.000035  -0.000000  -0.000012
     86      -0.000034   0.000125  -0.000035   0.000019   0.000001  -0.000007
     87      -0.000047   0.000172  -0.000072   0.000078   0.000016  -0.000045
     88      -0.000039   0.000146  -0.000046   0.000039   0.000008  -0.000025
     89      -0.000015   0.000055  -0.000019   0.000020   0.000004  -0.000012
     90       0.000028  -0.000094   0.000022  -0.000031  -0.000004   0.000012
     91      -0.000017   0.000055  -0.000014   0.000019   0.000004  -0.000001
     92      -0.000001   0.000002  -0.000003   0.000007   0.000001   0.000002
     93      -0.000009   0.000030  -0.000008   0.000011   0.000002  -0.000003
     94       0.000005  -0.000017   0.000004  -0.000007  -0.000001   0.000002
     95      -0.000001   0.000002  -0.000000  -0.000001   0.000000  -0.000000
     96      -0.000006   0.000021  -0.000006   0.000009   0.000001  -0.000003
     97       0.000003  -0.000010   0.000001  -0.000003  -0.000001   0.000001
     98       0.000002  -0.000006   0.000000  -0.000000  -0.000000   0.000000
     99      -0.000002   0.000005  -0.000003   0.000002   0.000000  -0.000000
    100       0.000005  -0.000016   0.000004  -0.000004  -0.000001   0.000002
    101       0.000001  -0.000005   0.000002  -0.000001  -0.000000   0.000002
    102      -0.000006   0.000022  -0.000007   0.000007   0.000001  -0.000003
    103       0.000006  -0.000019   0.000005  -0.000006  -0.000001   0.000003
    104       0.000001  -0.000002   0.000001  -0.000001  -0.000000   0.000000
    105      -0.000007   0.000022  -0.000009   0.000009   0.000002  -0.000004
    106      -0.000003   0.000009  -0.000002   0.000003   0.000000  -0.000000
    107      -0.000006   0.000021  -0.000007   0.000008   0.000002  -0.000003
    108      -0.000025   0.000081  -0.000015  -0.000011  -0.000002  -0.000007
    109      -0.000003   0.000008  -0.000002   0.000002   0.000002  -0.000003
    110      -0.000048   0.000157  -0.000035   0.000013   0.000003  -0.000018
    111       0.000066  -0.000221   0.000074  -0.000088  -0.000016   0.000036
    112       0.000016  -0.000053   0.000016  -0.000019  -0.000003   0.000007
    113       0.000070  -0.000232   0.000077  -0.000090  -0.000016   0.000036
    114       0.000003  -0.000014   0.000016  -0.000009  -0.000003   0.000014
    115      -0.000011   0.000039  -0.000020   0.000014   0.000004  -0.000011
    116       0.000001  -0.000003  -0.000001   0.000000   0.000000  -0.000002
    117       0.000016  -0.000051   0.000016  -0.000024  -0.000004   0.000009
    118       0.000012  -0.000033   0.000007   0.000003  -0.000001  -0.000002
    119       0.000031  -0.000099   0.000036  -0.000015  -0.000005   0.000006
    120      -0.000013   0.000316  -0.001176   0.000219  -0.000676   0.000074
    121      -0.000237   0.001785  -0.004867   0.001307  -0.002657   0.000350
    122      -0.000072   0.000617  -0.001482   0.000468  -0.001125   0.000134
    123      -0.000024   0.000128  -0.000090   0.000199   0.000004  -0.000052
    124      -0.000339   0.001254  -0.001008   0.000853   0.000079  -0.000202
    125      -0.000079   0.000289  -0.000245   0.000300   0.000031  -0.000043
                114        115        116        117        118        119    
      0       0.017863  -0.037620  -0.005399  -0.014754  -0.001399   0.000143
      1      -0.025121   0.054883   0.007497   0.019650  -0.003711  -0.000344
      2       0.014583  -0.030478  -0.004015  -0.010112   0.006342   0.000182
      3      -0.007077  -0.009272  -0.001350   0.000404  -0.076186  -0.001065
      4      -0.001788  -0.001106  -0.000502   0.000825  -0.041099  -0.000549
      5      -0.005038  -0.011684  -0.000544  -0.003158   0.028291   0.000340
      6       0.012445   0.005807   0.000187   0.000747  -0.004169  -0.000047
      7      -0.044844  -0.019089  -0.000454  -0.002016  -0.000641  -0.000160
      8      -0.064451  -0.027218  -0.000603  -0.002983   0.011962   0.000046
      9      -0.013450  -0.033806  -0.001417  -0.009810   0.102024   0.001276
     10      -0.019753  -0.046091  -0.001777  -0.013586   0.150559   0.001908
     11       0.047569   0.119860   0.004707   0.036001  -0.402851  -0.005138
     12       0.096718   0.143108   0.018123   0.007816   0.807701   0.011309
     13       0.039548   0.060973   0.007877   0.004227   0.340351   0.004732
     14       0.006230   0.010203   0.001422   0.001189   0.058316   0.000814
     15       0.000713   0.000403  -0.000060  -0.000070   0.000508  -0.000040
     16      -0.000237   0.000048   0.000030   0.000192   0.000205   0.000086
     17      -0.000372  -0.000089   0.000020   0.000005   0.000162   0.000056
     18      -0.083095  -0.035867  -0.000863  -0.003649   0.006494  -0.000154
     19       0.631213   0.263525   0.005202   0.026749  -0.048153   0.001122
     20       0.600191   0.249949   0.004976   0.025380  -0.046008   0.001030
     21      -0.073708  -0.032523  -0.000838  -0.003924   0.038454   0.000650
     22      -0.103255  -0.046454  -0.001215  -0.005937   0.052236   0.000788
     23       0.172926   0.077941   0.002065   0.010177  -0.096449  -0.001536
     24      -0.000223   0.000825   0.000681   0.001253   0.000278   0.000164
     25       0.000375  -0.000054   0.000014  -0.000957  -0.000137  -0.000186
     26       0.000042  -0.000205   0.000190  -0.000621   0.000112   0.000176
     27       0.000406  -0.000737  -0.000364  -0.001256   0.000295  -0.000183
     28      -0.000046   0.000166   0.000361   0.000810   0.000426  -0.000350
     29      -0.000009   0.000045   0.000070   0.000138   0.000035  -0.000287
     30       0.021642  -0.049186  -0.006043  -0.012985   0.023110   0.001110
     31       0.012311  -0.028690  -0.002758  -0.004541   0.019512   0.000563
     32      -0.046610   0.109719   0.011882   0.025004  -0.061586  -0.001112
     33      -0.233697   0.491476   0.070409   0.187992  -0.015859  -0.003195
     34       0.289807  -0.615464  -0.086796  -0.230823   0.021140   0.003840
     35      -0.123372   0.258700   0.036899   0.098282  -0.009409  -0.001615
     36      -0.006351   0.020582  -0.015787  -0.057849  -0.001590   0.004902
     37       0.004140  -0.013459   0.011030   0.037850   0.001113  -0.003495
     38      -0.004447   0.014165  -0.010594  -0.033646  -0.000950   0.009389
     39       0.000010  -0.000073  -0.000464   0.000693   0.000006   0.001151
     40       0.001110  -0.003790  -0.018153   0.016122  -0.000160   0.057942
     41      -0.000991   0.001393  -0.008607   0.001800  -0.000863   0.067187
     42      -0.002663   0.008625  -0.006389  -0.020600  -0.000671   0.008590
     43      -0.001216   0.003088  -0.001096  -0.002930  -0.000711   0.005869
     44       0.019533  -0.060345   0.038706   0.108698   0.002753  -0.073872
     45       0.076145  -0.248971   0.200463   0.700840   0.019141  -0.067131
     46      -0.046999   0.155213  -0.128792  -0.444450  -0.012161   0.042008
     47       0.032791  -0.106958   0.085815   0.298837   0.008201  -0.029703
     48      -0.001045   0.002266  -0.061995   0.016562   0.001239  -0.014116
     49      -0.000510   0.001215  -0.027400   0.006801   0.000531  -0.005794
     50       0.000811  -0.001742   0.042605  -0.010303  -0.000857   0.019377
     51      -0.000205   0.000900   0.004820  -0.006435   0.000053  -0.021913
     52      -0.009855   0.037676   0.215154  -0.184444   0.003075  -0.756537
     53      -0.004722   0.017892   0.100945  -0.085769   0.001471  -0.352971
     54      -0.000417   0.000968  -0.001203  -0.001495  -0.000177   0.009803
     55      -0.001966   0.003990  -0.002585  -0.006193  -0.001146   0.067363
     56       0.015768  -0.032477   0.006477   0.057095   0.008477  -0.453803
     57       0.000140  -0.000091  -0.000238  -0.000166  -0.000126  -0.000042
     58      -0.000098   0.000079  -0.000030  -0.000084   0.000011  -0.000549
     59      -0.000006  -0.000036   0.000211  -0.000132   0.000006  -0.000048
     60      -0.000524   0.000972  -0.028695   0.007152   0.000625  -0.018838
     61      -0.000386   0.000511  -0.015139   0.003158   0.000228  -0.009241
     62      -0.003216   0.005691  -0.157697   0.035902   0.003340  -0.142564
     63       0.013246  -0.030161   0.768118  -0.196380  -0.015235   0.188087
     64       0.005926  -0.013810   0.335871  -0.084874  -0.006654   0.082002
     65      -0.006252   0.014116  -0.356528   0.090956   0.007038  -0.087176
     66       0.000354   0.000237   0.000077   0.000160   0.000086   0.000064
     67       0.001469   0.000716  -0.000006   0.000249  -0.000063   0.000050
     68       0.000703   0.000336   0.000016   0.000109  -0.000056   0.000022
     69      -0.000022   0.000047  -0.000700   0.000359   0.000090  -0.000008
     70       0.000095  -0.000022  -0.000071  -0.000127  -0.000036  -0.000078
     71       0.000047   0.000031  -0.000412   0.000099   0.000007  -0.000106
     72      -0.000320  -0.000270   0.000072  -0.000244  -0.000116  -0.000062
     73       0.000038   0.000075  -0.000180   0.000210   0.000037   0.000033
     74       0.000050   0.000016   0.000088  -0.000003   0.000010   0.000053
     75      -0.000007  -0.000017   0.000041  -0.000093  -0.000044  -0.000065
     76       0.000017  -0.000019   0.000409  -0.000104  -0.000013   0.000108
     77      -0.000018  -0.000008   0.000017  -0.000017  -0.000008  -0.000004
     78       0.000045   0.000052   0.000127   0.000095   0.000061   0.000104
     79       0.000072   0.000113   0.000048   0.000122   0.000060   0.000049
     80       0.000020   0.000033   0.000058   0.000031   0.000019   0.000031
     81       0.000098   0.000166  -0.000088   0.000263   0.000106   0.000067
     82       0.000026   0.000032  -0.000059   0.000073   0.000039   0.000017
     83      -0.000008   0.000019  -0.000021   0.000053   0.000024   0.000009
     84      -0.000056  -0.000099   0.000002  -0.000150  -0.000064  -0.000053
     85      -0.000051  -0.000085   0.000037  -0.000115  -0.000047  -0.000022
     86      -0.000018  -0.000036   0.000017  -0.000052  -0.000022  -0.000012
     87      -0.000037  -0.000054  -0.000019  -0.000076  -0.000040  -0.000042
     88      -0.000030  -0.000044  -0.000012  -0.000057  -0.000028  -0.000026
     89      -0.000011  -0.000016  -0.000011  -0.000021  -0.000012  -0.000013
     90       0.000013   0.000025   0.000005   0.000041   0.000017   0.000017
     91      -0.000009  -0.000017   0.000014  -0.000028  -0.000011  -0.000005
     92       0.000003  -0.000000  -0.000002  -0.000002  -0.000000  -0.000001
     93      -0.000004  -0.000008   0.000000  -0.000014  -0.000005  -0.000005
     94       0.000001   0.000005   0.000000   0.000005   0.000003   0.000003
     95      -0.000001  -0.000001   0.000004  -0.000003  -0.000001   0.000001
     96      -0.000005  -0.000005   0.000001  -0.000008  -0.000003  -0.000003
     97       0.000001   0.000004   0.000001   0.000006   0.000002   0.000002
     98      -0.000000   0.000002   0.000002   0.000003   0.000002   0.000002
     99      -0.000001  -0.000000   0.000000  -0.000002  -0.000001  -0.000001
    100       0.000001   0.000004  -0.000002   0.000005   0.000002   0.000002
    101       0.000001   0.000002   0.000001   0.000002   0.000001   0.000001
    102      -0.000004  -0.000006   0.000001  -0.000010  -0.000006  -0.000005
    103       0.000002   0.000007  -0.000002   0.000008   0.000004   0.000004
    104      -0.000000   0.000001  -0.000000   0.000001   0.000001   0.000000
    105      -0.000006  -0.000010   0.000002  -0.000018  -0.000009  -0.000008
    106      -0.000002  -0.000002  -0.000000  -0.000006  -0.000002  -0.000001
    107      -0.000006  -0.000010   0.000003  -0.000018  -0.000008  -0.000006
    108      -0.000006  -0.000013  -0.000023  -0.000031  -0.000022  -0.000023
    109      -0.000000   0.000001  -0.000003  -0.000004  -0.000004  -0.000003
    110      -0.000015  -0.000033  -0.000021  -0.000064  -0.000035  -0.000036
    111       0.000063   0.000117  -0.000027   0.000203   0.000094   0.000080
    112       0.000009   0.000019  -0.000005   0.000029   0.000014   0.000012
    113       0.000060   0.000113  -0.000025   0.000193   0.000090   0.000077
    114       0.000007   0.000014   0.000005   0.000012   0.000020   0.000020
    115      -0.000011  -0.000016   0.000003  -0.000022  -0.000020  -0.000016
    116      -0.000001  -0.000000  -0.000004  -0.000001  -0.000002  -0.000003
    117       0.000009   0.000015   0.000007   0.000021   0.000010   0.000012
    118      -0.000003   0.000007  -0.000037   0.000020   0.000008  -0.000005
    119       0.000011   0.000028  -0.000057   0.000052   0.000024  -0.000000
    120      -0.002409  -0.001163   0.000062  -0.000403   0.000051  -0.000064
    121      -0.015370  -0.008004   0.000153  -0.002779   0.000207  -0.000623
    122      -0.006186  -0.003089  -0.000169  -0.000791   0.000179  -0.000292
    123      -0.000009  -0.000029   0.000138  -0.000119  -0.000056  -0.000027
    124      -0.000713  -0.000836   0.000497  -0.001098  -0.000689  -0.000313
    125      -0.000173  -0.000205   0.000086  -0.000279  -0.000182  -0.000081
                120        121        122        123        124        125    
      0      -0.000001   0.000002   0.000203   0.000113  -0.000027   0.000013
      1       0.000001  -0.000001  -0.000127  -0.000020   0.000003   0.000000
      2      -0.000001   0.000001  -0.000017  -0.000030   0.000004  -0.000004
      3      -0.000003   0.000001  -0.000032   0.000041  -0.000009   0.000003
      4      -0.000000   0.000001  -0.000065  -0.000003  -0.000002   0.000000
      5      -0.000003   0.000002  -0.000001   0.000026  -0.000005   0.000002
      6      -0.000001   0.000001  -0.000069   0.000016  -0.000002   0.000001
      7      -0.000007   0.000001   0.001179   0.000205  -0.000015   0.000007
      8       0.000003  -0.000002   0.001122   0.000102  -0.000008   0.000001
      9      -0.000004   0.000003   0.000180   0.000085  -0.000014   0.000007
     10      -0.000007   0.000004   0.000250   0.000104  -0.000017   0.000007
     11       0.000012  -0.000008  -0.000584  -0.000242   0.000040  -0.000018
     12       0.000052  -0.000023  -0.001565  -0.000912   0.000155  -0.000062
     13       0.000011  -0.000008  -0.000135  -0.000270   0.000062  -0.000024
     14       0.000003  -0.000001  -0.000341  -0.000119   0.000020  -0.000009
     15       0.000039  -0.000026   0.003226  -0.000023   0.000011  -0.000004
     16      -0.000003   0.000007  -0.001126   0.000008  -0.000029   0.000012
     17       0.000004  -0.000000   0.000049   0.000004  -0.000007   0.000002
     18      -0.000009   0.000006  -0.000250   0.000047   0.000000   0.000001
     19      -0.000006   0.000019  -0.014512  -0.001810   0.000147  -0.000053
     20      -0.000000   0.000016  -0.013565  -0.001729   0.000140  -0.000048
     21       0.000029  -0.000009  -0.001427  -0.000500   0.000055  -0.000019
     22       0.000031  -0.000013  -0.000159  -0.000391   0.000043  -0.000019
     23      -0.000053   0.000020   0.000158   0.000600  -0.000054   0.000030
     24       0.000003   0.000003   0.000037   0.000103  -0.000036   0.000019
     25       0.000009  -0.000005  -0.000832  -0.000270   0.000031  -0.000018
     26       0.000003  -0.000001  -0.000186  -0.000045   0.000001   0.000003
     27      -0.000002  -0.000001  -0.000081  -0.000119   0.000031  -0.000018
     28       0.000001   0.000001   0.000228   0.000115  -0.000026   0.000016
     29      -0.000002   0.000000   0.000028  -0.000015   0.000008  -0.000005
     30      -0.000007  -0.000006  -0.000481  -0.000403   0.000108  -0.000055
     31      -0.000006  -0.000005  -0.000447  -0.000382   0.000095  -0.000051
     32       0.000005   0.000010   0.000906   0.000790  -0.000178   0.000096
     33       0.000012  -0.000017  -0.001232  -0.000580   0.000134  -0.000056
     34      -0.000020   0.000022   0.001396   0.000666  -0.000146   0.000059
     35       0.000003  -0.000008  -0.000650  -0.000275   0.000066  -0.000027
     36      -0.000002   0.000003   0.000073   0.000056  -0.000014   0.000005
     37      -0.000001  -0.000002  -0.000133  -0.000075   0.000021  -0.000010
     38      -0.000001   0.000001  -0.000108  -0.000068   0.000013  -0.000008
     39      -0.000002   0.000001  -0.000009   0.000006   0.000000  -0.000000
     40       0.000001  -0.000000  -0.000054  -0.000042   0.000011  -0.000004
     41      -0.000003   0.000001  -0.000012   0.000016  -0.000000   0.000000
     42      -0.000001   0.000001  -0.000040  -0.000022   0.000003  -0.000001
     43       0.000001   0.000003   0.000078   0.000060  -0.000027   0.000013
     44       0.000003   0.000013   0.001486   0.001065  -0.000240   0.000124
     45       0.000011  -0.000027  -0.001200  -0.000691   0.000168  -0.000067
     46      -0.000006   0.000018   0.000890   0.000471  -0.000117   0.000048
     47       0.000002  -0.000010  -0.000437  -0.000268   0.000068  -0.000028
     48       0.000011  -0.000006  -0.000071  -0.000090   0.000006  -0.000008
     49       0.000004  -0.000003  -0.000027  -0.000045   0.000005  -0.000003
     50       0.000003  -0.000001  -0.000061  -0.000046   0.000007   0.000001
     51       0.000008  -0.000002   0.000064  -0.000021  -0.000006   0.000003
     52      -0.000034   0.000018   0.000814   0.000687  -0.000162   0.000062
     53      -0.000010   0.000006   0.000322   0.000253  -0.000065   0.000024
     54      -0.000000   0.000000   0.000009   0.000001   0.000000   0.000000
     55      -0.000003   0.000001   0.000001   0.000025  -0.000003   0.000002
     56       0.000028  -0.000012  -0.000051  -0.000318   0.000049  -0.000024
     57      -0.000021   0.000004  -0.000080  -0.000003   0.000036  -0.000011
     58      -0.000018   0.000009  -0.000002   0.000088  -0.000001   0.000007
     59      -0.000004   0.000001  -0.000004   0.000013   0.000005   0.000003
     60      -0.000003   0.000002   0.000124   0.000075  -0.000016   0.000000
     61      -0.000010   0.000006  -0.000004   0.000115  -0.000029   0.000009
     62      -0.000071   0.000038   0.000784   0.000691  -0.000105   0.000009
     63      -0.000085   0.000055   0.000720   0.000740  -0.000065   0.000079
     64      -0.000035   0.000029   0.000262   0.000316  -0.000037   0.000043
     65       0.000042  -0.000029  -0.000219  -0.000298   0.000024  -0.000033
     66       0.000029  -0.000017   0.005755   0.000523  -0.000049   0.000009
     67       0.000418  -0.000346   0.082891   0.005841  -0.000165   0.000057
     68       0.000115  -0.000098   0.023538   0.001665  -0.000050   0.000021
     69       0.000020  -0.000009  -0.000048   0.000021  -0.000024  -0.000007
     70       0.000065  -0.000039  -0.000830  -0.000777   0.000038  -0.000039
     71       0.000030  -0.000015  -0.000254  -0.000197   0.000005  -0.000017
     72      -0.000325   0.000155  -0.002761   0.002093   0.000046  -0.000007
     73       0.000041  -0.000016  -0.000163  -0.000741  -0.000024  -0.000020
     74      -0.000061   0.000023  -0.000382   0.000089   0.000003   0.000007
     75      -0.000008   0.000013   0.000056   0.000085   0.000047   0.000102
     76       0.000022  -0.000023   0.000081   0.000022  -0.000011   0.000025
     77      -0.000003   0.000003   0.000037   0.000015  -0.000013  -0.000026
     78      -0.000041   0.000003  -0.000198  -0.000453  -0.000150  -0.000473
     79       0.000249  -0.000123  -0.000197  -0.000808  -0.000024  -0.000151
     80       0.000080  -0.000068  -0.000071  -0.000221  -0.000004  -0.000038
     81      -0.000565   0.000341  -0.000594   0.005727  -0.000174  -0.000115
     82      -0.008883   0.004606  -0.005819   0.082735  -0.000926   0.000203
     83      -0.002454   0.001294  -0.001585   0.022117  -0.000258   0.000024
     84       0.000420  -0.000333   0.000570  -0.003228   0.000071  -0.000106
     85       0.000183  -0.000080   0.000121  -0.000962   0.000052  -0.000128
     86       0.000203  -0.000128   0.000102  -0.000668  -0.000005  -0.000224
     87      -0.000070   0.000047   0.000128   0.000222   0.000134   0.000391
     88      -0.000042   0.000022   0.000089   0.000198  -0.000101  -0.000229
     89      -0.000027   0.000016   0.000036   0.000069   0.000077   0.000234
     90       0.001255  -0.000322  -0.000061   0.000071   0.000093   0.002489
     91      -0.002083   0.000839   0.000072   0.000029   0.000031  -0.000096
     92      -0.001716   0.000803   0.000036  -0.000102   0.000129   0.001889
     93      -0.000825   0.000024   0.000011   0.000150  -0.000713   0.007331
     94       0.000642   0.001016   0.000007  -0.000215  -0.013522  -0.054338
     95       0.000110   0.001379   0.000013  -0.000142  -0.018064  -0.064232
     96       0.052593  -0.024315  -0.000839   0.006822  -0.002466   0.000390
     97       0.009453  -0.003264  -0.000144   0.001053  -0.000193   0.000504
     98       0.057272  -0.025021  -0.000915   0.007408  -0.002298   0.001138
     99       0.000489   0.000157   0.000001   0.000001  -0.000502   0.000122
    100      -0.000289   0.000317   0.000001  -0.000087   0.000180  -0.000026
    101      -0.000119   0.000582  -0.000000  -0.000022  -0.000176   0.000004
    102       0.025508   0.061125   0.000199  -0.000469   0.015025  -0.002682
    103      -0.020581  -0.046814  -0.000140   0.000201  -0.013314   0.003004
    104      -0.005715  -0.010485  -0.000014  -0.000163  -0.004824   0.001748
    105      -0.003600  -0.013928   0.000020   0.001024   0.060479  -0.020198
    106       0.000582   0.000846   0.000004   0.000165   0.005425   0.000484
    107      -0.002103  -0.010117   0.000020   0.001031   0.055182  -0.015511
    108      -0.629708   0.272139   0.010095  -0.082115   0.024415  -0.005539
    109      -0.086584   0.036997   0.001365  -0.011071   0.003123  -0.001190
    110      -0.647082   0.279173   0.010353  -0.083563   0.024670  -0.006674
    111       0.042240   0.161363  -0.000156  -0.012341  -0.694857   0.202565
    112       0.002040   0.008740  -0.000046  -0.000907  -0.051067   0.012969
    113       0.036525   0.139983  -0.000166  -0.011109  -0.620314   0.177834
    114      -0.313095  -0.706013  -0.001949   0.003546  -0.167349   0.028884
    115       0.234943   0.529134   0.001467  -0.002555   0.128036  -0.023030
    116       0.048019   0.106957   0.000295  -0.000522   0.028594  -0.005962
    117       0.001979   0.001620  -0.000020  -0.000197  -0.018972  -0.076014
    118      -0.005808  -0.013747  -0.000113   0.001274   0.176525   0.618290
    119      -0.006126  -0.016097  -0.000197   0.001541   0.209804   0.727889
    120      -0.000133   0.000184  -0.074335  -0.007514   0.000179  -0.000037
    121      -0.004690   0.003921  -0.952860  -0.067628   0.001889  -0.000553
    122      -0.001313   0.001103  -0.271215  -0.019514   0.000544  -0.000148
    123       0.005538  -0.002945   0.006128  -0.051392   0.000561   0.000120
    124       0.101946  -0.052787   0.066781  -0.951733   0.010616  -0.001110
    125       0.026881  -0.013939   0.018124  -0.254681   0.002843  -0.000328


-----------
IR SPECTRUM
-----------

 Mode   freq       eps      Int      T**2         TX        TY        TZ
       cm**-1   L/(mol*cm) km/mol    a.u.
----------------------------------------------------------------------------
  6:     31.18   0.000296    1.50  0.002965  ( 0.008882  0.010797 -0.052626)
  7:     47.16   0.000452    2.29  0.002994  (-0.004175  0.047732 -0.026425)
  8:     68.53   0.000600    3.03  0.002733  ( 0.022704  0.009756 -0.046067)
  9:     72.23   0.000225    1.14  0.000972  ( 0.020113  0.023787  0.001094)
 10:     85.03   0.000507    2.56  0.001862  (-0.024797  0.034574 -0.007183)
 11:     95.45   0.000964    4.87  0.003151  (-0.028604  0.035252 -0.033009)
 12:    124.88   0.005186   26.21  0.012960  ( 0.073920 -0.057172  0.065015)
 13:    151.65   0.002378   12.02  0.004893  (-0.062596  0.030702 -0.005635)
 14:    176.11   0.000235    1.19  0.000416  (-0.020063  0.003384  0.001408)
 15:    185.55   0.000148    0.75  0.000248  ( 0.014311  0.003727 -0.005427)
 16:    222.40   0.000249    1.26  0.000349  (-0.009784  0.015329 -0.004279)
 17:    273.66   0.002841   14.36  0.003240  (-0.041975  0.034797  0.016335)
 18:    276.44   0.000396    2.00  0.000447  (-0.020971 -0.002609 -0.000179)
 19:    305.88   0.001551    7.84  0.001582  ( 0.038845  0.001518 -0.008409)
 20:    314.90   0.004759   24.05  0.004717  ( 0.051323 -0.031496  0.033023)
 21:    343.07   0.002465   12.46  0.002242  ( 0.042332 -0.019963  0.007187)
 22:    363.70   0.000158    0.80  0.000135  (-0.000262 -0.010513  0.004969)
 23:    399.06   0.000739    3.74  0.000578  ( 0.023875  0.001126  0.002615)
 24:    410.65   0.000458    2.31  0.000348  ( 0.003563  0.010449 -0.015030)
 25:    415.47   0.000267    1.35  0.000201  ( 0.012371  0.006515 -0.002270)
 26:    439.84   0.010422   52.67  0.007395  ( 0.083025 -0.022351  0.001336)
 27:    445.09   0.007031   35.53  0.004930  (-0.054075  0.044671  0.003170)
 28:    463.41   0.002746   13.88  0.001849  (-0.041153  0.007931 -0.009634)
 29:    478.16   0.006130   30.98  0.004001  (-0.062495  0.009744  0.000238)
 30:    525.68   0.000828    4.19  0.000492  ( 0.018430 -0.011512  0.004407)
 31:    531.22   0.001143    5.77  0.000671  ( 0.023282 -0.005206  0.010105)
 32:    540.55   0.001082    5.47  0.000625  ( 0.019917 -0.009323 -0.011885)
 33:    562.19   0.006297   31.82  0.003495  ( 0.056984 -0.002449  0.015565)
 34:    599.69   0.006443   32.56  0.003353  (-0.054881  0.017713 -0.005212)
 35:    623.44   0.001888    9.54  0.000945  ( 0.024248  0.018848  0.001418)
 36:    641.39   0.001871    9.45  0.000910  (-0.021178  0.015616  0.014761)
 37:    642.78   0.001646    8.32  0.000799  ( 0.000413  0.021434  0.018424)
 38:    690.74   0.001959    9.90  0.000885  ( 0.022053  0.019644 -0.003570)
 39:    705.49   0.002544   12.86  0.001125  (-0.033185  0.004793 -0.001113)
 40:    729.03   0.011846   59.87  0.005071  (-0.032707 -0.050127  0.038579)
 41:    738.04   0.002441   12.33  0.001032  (-0.006189 -0.029699  0.010568)
 42:    770.54   0.002588   13.08  0.001048  (-0.016171  0.010947 -0.025826)
 43:    787.08   0.003330   16.83  0.001320  (-0.011400  0.001736  0.034456)
 44:    798.43   0.002312   11.68  0.000903  ( 0.005785 -0.012984  0.026484)
 45:    832.84   0.006709   33.90  0.002514  ( 0.008631  0.026885 -0.041432)
 46:    864.76   0.000188    0.95  0.000068  (-0.002426 -0.001498  0.007723)
 47:    871.65   0.002077   10.49  0.000743  (-0.025559  0.004838 -0.008170)
 48:    882.39   0.002216   11.20  0.000784  ( 0.009874 -0.026055 -0.002726)
 49:    897.78   0.000696    3.52  0.000242  (-0.003921 -0.012400 -0.008541)
 50:    901.26   0.001191    6.02  0.000412  ( 0.008036 -0.005564 -0.017803)
 51:    911.36   0.002347   11.86  0.000804  ( 0.017934  0.009213 -0.019932)
 52:    921.60   0.003938   19.90  0.001333  ( 0.036124  0.000398  0.005319)
 53:    950.73   0.002023   10.23  0.000664  (-0.011783  0.022619 -0.003699)
 54:    951.75   0.000706    3.57  0.000231  ( 0.014500 -0.001714 -0.004263)
 55:    968.15   0.005461   27.60  0.001760  ( 0.007761  0.006646 -0.040692)
 56:    979.10   0.001050    5.31  0.000335  (-0.007654  0.005080  0.015823)
 57:   1003.81   0.012717   64.27  0.003954  (-0.055266  0.029953 -0.001430)
 58:   1009.63   0.000049    0.25  0.000015  ( 0.003265  0.001706  0.001245)
 59:   1028.44   0.000051    0.26  0.000016  (-0.002006 -0.001033 -0.003240)
 60:   1044.70   0.004480   22.64  0.001338  ( 0.017729 -0.019458 -0.025400)
 61:   1047.12   0.000783    3.96  0.000233  ( 0.013637 -0.004861  0.004881)
 62:   1061.12   0.002255   11.40  0.000663  (-0.020637 -0.014076 -0.006262)
 63:   1067.88   0.001243    6.28  0.000363  (-0.002215 -0.013839 -0.012912)
 64:   1095.90   0.001239    6.26  0.000353  ( 0.005528  0.016306 -0.007503)
 65:   1099.84   0.005918   29.91  0.001679  ( 0.037442 -0.004385  0.016066)
 66:   1108.94   0.003847   19.44  0.001083  (-0.025545  0.020673  0.001657)
 67:   1119.97   0.011788   59.57  0.003284  (-0.052330  0.020107  0.011905)
 68:   1143.06   0.002928   14.80  0.000799  (-0.020090 -0.007021 -0.018616)
 69:   1171.09   0.006607   33.39  0.001761  ( 0.011271 -0.038332 -0.012816)
 70:   1190.04   0.075791  383.02  0.019875  (-0.137382  0.031343 -0.004304)
 71:   1206.32   0.038904  196.60  0.010064  (-0.089338  0.044793 -0.008738)
 72:   1218.72   0.009717   49.10  0.002488  (-0.043617  0.021949  0.010191)
 73:   1220.61   0.010435   52.73  0.002668  (-0.044244 -0.025502 -0.007739)
 74:   1228.89   0.008351   42.20  0.002121  ( 0.043998  0.010459  0.008682)
 75:   1242.37   0.044237  223.56  0.011112  ( 0.095500 -0.044450  0.003946)
 76:   1243.89   0.007671   38.77  0.001925  ( 0.042693  0.007712  0.006506)
 77:   1274.96   0.007431   37.55  0.001819  (-0.039761  0.015141 -0.002953)
 78:   1279.09   0.005218   26.37  0.001273  (-0.026010  0.022564  0.009352)
 79:   1299.20   0.015789   79.79  0.003792  ( 0.057606 -0.016947  0.013666)
 80:   1306.30   0.019107   96.56  0.004565  (-0.061979  0.024718 -0.010591)
 81:   1317.59   0.311777  1575.59  0.073842  ( 0.265532 -0.057031  0.009101)
 82:   1336.59   0.038716  195.66  0.009039  ( 0.078989 -0.052074 -0.009407)
 83:   1356.22   0.011150   56.35  0.002566  (-0.036048  0.034809  0.007382)
 84:   1362.24   0.009629   48.66  0.002206  (-0.045706  0.010794 -0.000456)
 85:   1370.27   0.016520   83.48  0.003762  ( 0.041432 -0.041059 -0.018966)
 86:   1376.70   0.000763    3.85  0.000173  (-0.001457  0.011715  0.005792)
 87:   1381.25   0.003927   19.84  0.000887  (-0.000965 -0.027243 -0.012001)
 88:   1385.17   0.007108   35.92  0.001601  (-0.007345 -0.038466 -0.008229)
 89:   1392.81   0.002807   14.19  0.000629  (-0.002664 -0.022496 -0.010760)
 90:   1394.51   0.026433  133.58  0.005915  ( 0.060023 -0.046666 -0.011610)
 91:   1446.24   0.003160   15.97  0.000682  ( 0.022830  0.003955  0.012041)
 92:   1458.98   0.011607   58.66  0.002483  ( 0.040901 -0.027730  0.006381)
 93:   1468.98   0.015645   79.06  0.003323  (-0.053810  0.019595  0.006633)
 94:   1472.74   0.000492    2.49  0.000104  (-0.008283 -0.003443 -0.004874)
 95:   1477.21   0.025570  129.22  0.005402  ( 0.058873 -0.041508  0.014583)
 96:   1481.98   0.000919    4.64  0.000194  (-0.006051 -0.012368 -0.001986)
 97:   1484.82   0.013336   67.39  0.002803  ( 0.043927 -0.027204 -0.011541)
 98:   1496.61   0.001774    8.97  0.000370  (-0.017892  0.006809 -0.001862)
 99:   1499.10   0.025004  126.36  0.005205  (-0.071278  0.002368 -0.010904)
100:   1516.86   0.003185   16.10  0.000655  (-0.003955 -0.024637 -0.005718)
101:   1545.07   0.152072  768.51  0.030714  (-0.162363  0.065408  0.008636)
102:   1583.01   0.137425  694.49  0.027091  (-0.162365  0.023258 -0.013703)
103:   1604.48   0.008935   45.15  0.001738  (-0.003885 -0.031574 -0.026940)
104:   1617.74   0.249969  1263.24  0.048219  (-0.218295  0.013339 -0.019717)
105:   1626.09   0.054584  275.85  0.010475  ( 0.101936  0.007159  0.005754)
106:   1646.35   0.076452  386.36  0.014491  ( 0.119554  0.000401  0.014072)
107:   1699.52   0.134691  680.67  0.024732  (-0.084388 -0.126172 -0.041122)
108:   2973.83   0.011032   55.75  0.001158  (-0.031612 -0.009551  0.008195)
109:   2975.15   0.054178  273.79  0.005683  ( 0.054011 -0.022613 -0.047478)
110:   3010.78   0.008730   44.12  0.000905  (-0.019219 -0.021456  0.008664)
111:   3013.31   0.006838   34.56  0.000708  (-0.006681 -0.012266 -0.022651)
112:   3037.08   0.007737   39.10  0.000795  ( 0.007109 -0.006741  0.026439)
113:   3039.56   0.011578   58.51  0.001189  (-0.003256  0.019710 -0.028100)
114:   3074.28   0.008447   42.69  0.000857  ( 0.000727 -0.023973 -0.016798)
115:   3077.34   0.006739   34.06  0.000683  (-0.019024  0.005228 -0.017151)
116:   3082.49   0.007221   36.49  0.000731  (-0.024016 -0.012324  0.001526)
117:   3085.79   0.023565  119.09  0.002383  (-0.031620  0.034389 -0.014167)
118:   3087.96   0.013618   68.82  0.001376  (-0.033325 -0.011350  0.011700)
119:   3089.42   0.011401   57.62  0.001152  (-0.005936  0.018664  0.027714)
120:   3158.69   0.006876   34.75  0.000679  ( 0.022203 -0.008786  0.010446)
121:   3163.88   0.001523    7.70  0.000150  ( 0.008265 -0.007707 -0.004749)
122:   3171.82   0.002171   10.97  0.000214  ( 0.007073  0.012110  0.004117)
123:   3182.05   0.001454    7.35  0.000143  (-0.004482  0.010692  0.002868)
124:   3196.53   0.004186   21.15  0.000409  ( 0.018700 -0.005726  0.005115)
125:   3220.23   0.000767    3.87  0.000074  (-0.004082 -0.001219 -0.007494)

* The epsilon (eps) is given for a Dirac delta lineshape.
** The dipole moment derivative (T) already includes vibrational overlap.

The first frequency considered to be a vibration is 6
The total number of vibrations considered is 120


--------------------------
THERMOCHEMISTRY AT 298.15K
--------------------------

Temperature         ...   298.15 K
Pressure            ...     1.00 atm
Total Mass          ...   318.38 AMU
Quasi RRHO          ...     True
Cut-Off Frequency   ...     1.00 cm^-1

Throughout the following assumptions are being made:
  (1) The electronic state is orbitally nondegenerate
  (2) There are no thermally accessible electronically excited states
  (3) Hindered rotations indicated by low frequency modes are not
      treated as such but are treated as vibrations and this may
      cause some error
  (4) All equations used are the standard statistical mechanics
      equations for an ideal gas
  (5) All vibrations are strictly harmonic

freq.      31.18  E(vib)   ...       0.55 
freq.      47.16  E(vib)   ...       0.53 
freq.      68.53  E(vib)   ...       0.50 
freq.      72.23  E(vib)   ...       0.50 
freq.      85.03  E(vib)   ...       0.48 
freq.      95.45  E(vib)   ...       0.47 
freq.     124.88  E(vib)   ...       0.43 
freq.     151.65  E(vib)   ...       0.40 
freq.     176.11  E(vib)   ...       0.38 
freq.     185.55  E(vib)   ...       0.37 
freq.     222.40  E(vib)   ...       0.33 
freq.     273.66  E(vib)   ...       0.28 
freq.     276.44  E(vib)   ...       0.28 
freq.     305.88  E(vib)   ...       0.26 
freq.     314.90  E(vib)   ...       0.25 
freq.     343.07  E(vib)   ...       0.23 
freq.     363.70  E(vib)   ...       0.22 
freq.     399.06  E(vib)   ...       0.19 
freq.     410.65  E(vib)   ...       0.19 
freq.     415.47  E(vib)   ...       0.18 
freq.     439.84  E(vib)   ...       0.17 
freq.     445.09  E(vib)   ...       0.17 
freq.     463.41  E(vib)   ...       0.16 
freq.     478.16  E(vib)   ...       0.15 
freq.     525.68  E(vib)   ...       0.13 
freq.     531.22  E(vib)   ...       0.13 
freq.     540.55  E(vib)   ...       0.12 
freq.     562.19  E(vib)   ...       0.11 
freq.     599.69  E(vib)   ...       0.10 
freq.     623.44  E(vib)   ...       0.09 
freq.     641.39  E(vib)   ...       0.09 
freq.     642.78  E(vib)   ...       0.09 
freq.     690.74  E(vib)   ...       0.07 
freq.     705.49  E(vib)   ...       0.07 
freq.     729.03  E(vib)   ...       0.06 
freq.     738.04  E(vib)   ...       0.06 
freq.     770.54  E(vib)   ...       0.05 
freq.     787.08  E(vib)   ...       0.05 
freq.     798.43  E(vib)   ...       0.05 
freq.     832.84  E(vib)   ...       0.04 
freq.     864.76  E(vib)   ...       0.04 
freq.     871.65  E(vib)   ...       0.04 
freq.     882.39  E(vib)   ...       0.04 
freq.     897.78  E(vib)   ...       0.03 
freq.     901.26  E(vib)   ...       0.03 
freq.     911.36  E(vib)   ...       0.03 
freq.     921.60  E(vib)   ...       0.03 
freq.     950.73  E(vib)   ...       0.03 
freq.     951.75  E(vib)   ...       0.03 
freq.     968.15  E(vib)   ...       0.03 
freq.     979.10  E(vib)   ...       0.03 
freq.    1003.81  E(vib)   ...       0.02 
freq.    1009.63  E(vib)   ...       0.02 
freq.    1028.44  E(vib)   ...       0.02 
freq.    1044.70  E(vib)   ...       0.02 
freq.    1047.12  E(vib)   ...       0.02 
freq.    1061.12  E(vib)   ...       0.02 
freq.    1067.88  E(vib)   ...       0.02 
freq.    1095.90  E(vib)   ...       0.02 
freq.    1099.84  E(vib)   ...       0.02 
freq.    1108.94  E(vib)   ...       0.02 
freq.    1119.97  E(vib)   ...       0.01 
freq.    1143.06  E(vib)   ...       0.01 
freq.    1171.09  E(vib)   ...       0.01 
freq.    1190.04  E(vib)   ...       0.01 
freq.    1206.32  E(vib)   ...       0.01 
freq.    1218.72  E(vib)   ...       0.01 
freq.    1220.61  E(vib)   ...       0.01 
freq.    1228.89  E(vib)   ...       0.01 
freq.    1242.37  E(vib)   ...       0.01 
freq.    1243.89  E(vib)   ...       0.01 
freq.    1274.96  E(vib)   ...       0.01 
freq.    1279.09  E(vib)   ...       0.01 
freq.    1299.20  E(vib)   ...       0.01 
freq.    1306.30  E(vib)   ...       0.01 
freq.    1317.59  E(vib)   ...       0.01 
freq.    1336.59  E(vib)   ...       0.01 
freq.    1356.22  E(vib)   ...       0.01 
freq.    1362.24  E(vib)   ...       0.01 
freq.    1370.27  E(vib)   ...       0.01 
freq.    1376.70  E(vib)   ...       0.01 
freq.    1381.25  E(vib)   ...       0.01 
freq.    1385.17  E(vib)   ...       0.00 
freq.    1392.81  E(vib)   ...       0.00 
freq.    1394.51  E(vib)   ...       0.00 
freq.    1446.24  E(vib)   ...       0.00 
freq.    1458.98  E(vib)   ...       0.00 
freq.    1468.98  E(vib)   ...       0.00 
freq.    1472.74  E(vib)   ...       0.00 
freq.    1477.21  E(vib)   ...       0.00 
freq.    1481.98  E(vib)   ...       0.00 
freq.    1484.82  E(vib)   ...       0.00 
freq.    1496.61  E(vib)   ...       0.00 
freq.    1499.10  E(vib)   ...       0.00 
freq.    1516.86  E(vib)   ...       0.00 
freq.    1545.07  E(vib)   ...       0.00 
freq.    1583.01  E(vib)   ...       0.00 
freq.    1604.48  E(vib)   ...       0.00 
freq.    1617.74  E(vib)   ...       0.00 
freq.    1626.09  E(vib)   ...       0.00 
freq.    1646.35  E(vib)   ...       0.00 
freq.    1699.52  E(vib)   ...       0.00 
freq.    2973.83  E(vib)   ...       0.00 
freq.    2975.15  E(vib)   ...       0.00 
freq.    3010.78  E(vib)   ...       0.00 
freq.    3013.31  E(vib)   ...       0.00 
freq.    3037.08  E(vib)   ...       0.00 
freq.    3039.56  E(vib)   ...       0.00 
freq.    3074.28  E(vib)   ...       0.00 
freq.    3077.34  E(vib)   ...       0.00 
freq.    3082.49  E(vib)   ...       0.00 
freq.    3085.79  E(vib)   ...       0.00 
freq.    3087.96  E(vib)   ...       0.00 
freq.    3089.42  E(vib)   ...       0.00 
freq.    3158.69  E(vib)   ...       0.00 
freq.    3163.88  E(vib)   ...       0.00 
freq.    3171.82  E(vib)   ...       0.00 
freq.    3182.05  E(vib)   ...       0.00 
freq.    3196.53  E(vib)   ...       0.00 
freq.    3220.23  E(vib)   ...       0.00 

------------
INNER ENERGY
------------

The inner energy is: U= E(el) + E(ZPE) + E(vib) + E(rot) + E(trans)
    E(el)   - is the total energy from the electronic structure calculation
              = E(kin-el) + E(nuc-el) + E(el-el) + E(nuc-nuc)
    E(ZPE)  - the the zero temperature vibrational energy from the frequency calculation
    E(vib)  - the the finite temperature correction to E(ZPE) due to population
              of excited vibrational states
    E(rot)  - is the rotational thermal energy
    E(trans)- is the translational thermal energy

Summary of contributions to the inner energy U:
Electronic energy                ...  -1032.80025071 Eh
Zero point energy                ...      0.34209053 Eh     214.66 kcal/mol
Thermal vibrational correction   ...      0.01556978 Eh       9.77 kcal/mol
Thermal rotational correction    ...      0.00141627 Eh       0.89 kcal/mol
Thermal translational correction ...      0.00141627 Eh       0.89 kcal/mol
-----------------------------------------------------------------------
Total thermal energy                  -1032.43975786 Eh


Summary of corrections to the electronic energy:
(perhaps to be used in another calculation)
Total thermal correction                  0.01840232 Eh      11.55 kcal/mol
Non-thermal (ZPE) correction              0.34209053 Eh     214.66 kcal/mol
-----------------------------------------------------------------------
Total correction                          0.36049285 Eh     226.21 kcal/mol


--------
ENTHALPY
--------

The enthalpy is H = U + kB*T
                kB is Boltzmann's constant
Total thermal energy              ...  -1032.43975786 Eh 
Thermal Enthalpy correction       ...      0.00094421 Eh       0.59 kcal/mol
-----------------------------------------------------------------------
Total Enthalpy                    ...  -1032.43881365 Eh


Note: Only C1 symmetry has been detected, increase convergence thresholds 
      if your molecule has a higher symmetry. Symmetry factor of 1.0 is   
      used for the rotational entropy correction. 
 

Note: Rotational entropy computed according to Herzberg 
Infrared and Raman Spectra, Chapter V,1, Van Nostrand Reinhold, 1945 
Point Group:  C1, Symmetry Number:   1  
Rotational constants in cm-1:     0.021348     0.003951     0.003403 

Vibrational entropy computed according to the QRRHO of S. Grimme
Chem.Eur.J. 2012 18 9955 using a reference frequency of 100.0 cm-1


-------
ENTROPY
-------

The entropy contributions are T*S = T*(S(el)+S(vib)+S(rot)+S(trans))
     S(el)   - electronic entropy
     S(vib)  - vibrational entropy
     S(rot)  - rotational entropy
     S(trans)- translational entropy
The entropies will be listed as multiplied by the temperature to get
units of energy

Electronic entropy                ...      0.00000000 Eh      0.00 kcal/mol
Vibrational entropy               ...      0.02668032 Eh     16.74 kcal/mol
Rotational entropy                ...      0.01662221 Eh     10.43 kcal/mol
Translational entropy             ...      0.02051137 Eh     12.87 kcal/mol
-----------------------------------------------------------------------
Final entropy term                ...      0.06381391 Eh     40.04 kcal/mol

In case the symmetry of your molecule has not been determined correctly
or in case you have a reason to use a different symmetry number we print 
out the resulting rotational entropy values for sn=1,12:

 non-linear molecules -----------------------------------
|  sn= 1 | S(rot)=       0.01662221 Eh     10.43 kcal/mol|
|  sn= 2 | S(rot)=       0.01596776 Eh     10.02 kcal/mol|
|  sn= 3 | S(rot)=       0.01558492 Eh      9.78 kcal/mol|
|  sn= 4 | S(rot)=       0.01531330 Eh      9.61 kcal/mol|
|  sn= 5 | S(rot)=       0.01510261 Eh      9.48 kcal/mol|
|  sn= 6 | S(rot)=       0.01493047 Eh      9.37 kcal/mol|
|  sn= 7 | S(rot)=       0.01478492 Eh      9.28 kcal/mol|
|  sn= 8 | S(rot)=       0.01465884 Eh      9.20 kcal/mol|
|  sn= 9 | S(rot)=       0.01454764 Eh      9.13 kcal/mol|
|  sn=10 | S(rot)=       0.01444816 Eh      9.07 kcal/mol|
|  sn=11 | S(rot)=       0.01435817 Eh      9.01 kcal/mol|
|  sn=12 | S(rot)=       0.01427601 Eh      8.96 kcal/mol|
 linear molecules ---------------------------------------
|  Dinfh | S(rot)=       0.01069176 Eh      6.71 kcal/mol|
|  Cinfv | S(rot)=       0.01134621 Eh      7.12 kcal/mol|
 --------------------------------------------------------


-------------------
GIBBS FREE ENERGY
-------------------

The Gibbs free energy is G = H - T*S

Total enthalpy                    ...  -1032.43881365 Eh 
Total entropy correction          ...     -0.06381391 Eh    -40.04 kcal/mol
-----------------------------------------------------------------------
Final Gibbs free energy         ...  -1032.50262756 Eh

For completeness - the Gibbs free energy minus the electronic energy
G-E(el)                           ...      0.29762315 Eh    186.76 kcal/mol


Maximum memory used throughout the entire PROP-calculation: 476.6 MB

--------------------------------
SUGGESTED CITATIONS FOR THIS RUN
--------------------------------

Below you find a list of papers that are relevant to this ORCA run
We neither can nor want to force you to cite these papers, but we appreciate if you do
You receive ORCA, which is the product of decades of hard work by many enthusiastic individuals, for free
The only thing we kindly ask in return is that you cite our papers,
We deeply appreciate it, if you show your appreciation for ORCA by not just citing the generic ORCA reference.

Please note that relegating all ORCA citations to the supporting information does *not* help us.
SI sections are not indexed - citations you put there will not count into any citation statistics
But we need these citations in order to attract the funding resources that allow us to do what we are doing

Therefore, if you are a happy ORCA user, please consider citing a few of the papers listed below in the main body of your paper

In addition to the list printed below, the program has created the file NMU-1.bibtex that contains the list in bibtex format
You can import this file easily into all common literature databanks and citation aid programs


List of essential papers. We consider these as the minimum necessary citations

  1. Neese,F.
     Software update: the ORCA program system, version 5.0
     WIRES Comput. Molec. Sci., 2022 12(1)e1606
     doi.org/10.1002/wcms.1606

List of papers to cite with high priority. The work reported in these papers was absolutely
necessary for this run to complete.
Our perspective: the developers of density functionals and basis sets usually get cited in chemistry papers
Good! But without the algorithms to do something with them, the functionals or basis sets would not do anything.
Hence, in our opinion, the algorithm design and method developments papers are equally worthy of getting cited

  1. Neese,F.
     An improvement of the resolution of the identity approximation for the formation of the Coulomb matrix
     J. Comp. Chem., 2003 24(14)1740-1747
     doi.org/10.1002/jcc.10318
  2. Neese,F.; Wennmohs,F.; Hansen,A.; Becker,U.
     Efficient, approximate and parallel Hartree-Fock and hybrid DFT calculations. A 'chain-of-spheres' algorithm for the Hartree-Fock exchange
     Chem. Phys., 2009 356(1-3)98-109
     doi.org/10.1016/j.chemphys.2008.10.036
  3. Bykov,D.; Petrenko,T.; Izsak,R.; Kossmann,S.; Becker,U.; Valeev,E.; Neese,F.
     Efficient implementation of the analytic second derivatives of Hartree-Fock and hybrid DFT energies: a detailed analysis of different approximations
     Molec. Phys., 2015 113 1961-1977
     doi.org/10.1080/00268976.2015.1025114
  4. Garcia-Rates,M.; Neese,F.
     Efficient implementation of the analytical second derivatives of hartree-fock and hybrid DFT energies within the framework of the conductor-like polarizable continuum model
     J. Comput. Chem., 2019 40 1816-1828
     doi.org/10.1002/jcc.25833
  5. Garcia-Rates,M.; Neese,F.
     Effect of the Solute Cavity on the Solvation Energy and its Derivatives within the Framework of the Gaussian Charge Scheme
     J. Comput. Chem., 2020 41 922-939
     doi.org/10.1002/jcc.26139
  6. Helmich-Paris,B.; de Souza,B.; Neese,F.; Izsák,R.
     An improved chain of spheres for exchange algorithm
     J. Chem. Phys., 2021 155 104109
     doi.org/doi: 10.1063/5.0058766.
  7. Neese,F.
     The SHARK Integral Generation and Digestion System
     J. Comp. Chem., 2022  1-16
     doi.org/10.1002/jcc.26942
  8. Grimme,S.; Antony,J.; Ehrlich,S.; Krieg,H.
     A consistent and accurate ab initio parametrization of density functional dispersion correction (DFT-D) for the 94 elements H-Pu
     J. Chem. Phys., 2010 132 154104
     doi.org/10.1063/1.3382344
  9. Grimme,S.; Ehrlich,S.; Goerigk,L.
     Effect of the damping function in dispersion corrected density functional theory
     J. Comput. Chem., 2011 32(7)1456-1465
     doi.org/10.1002/jcc.21759

List of suggested additional citations. These are papers that are important in the 'surrounding' of 
of this run, or papers that preceded the highly important papers. If you like your results we are grateful for a citation.

  1. Izsak,R.; Neese,F.
     An overlap fitted chain of spheres exchange method
     J. Chem. Phys., 2011 135 144105
     doi.org/10.1063/1.3646921
  2. Izsak,R.; Hansen,A.; Neese,F.
     The resolution of identity and chain of spheres approximations for the LPNO-CCSD singles Fock term
     Molec. Phys., 2012 110 2413-2417
     doi.org/10.1080/00268976.2012.687466
  3. Neese,F.
     The ORCA program system
     WIRES Comput. Molec. Sci., 2012 2(1)73-78
     doi.org/10.1002/wcms.81
  4. Izsak,R.; Neese,F.; Klopper,W.
     Robust fitting techniques in the chain of spheres approximation to the Fock exchange: The role of the complementary space
     J. Chem. Phys., 2013 139 
     doi.org/10.1063/1.4819264
  5. Neese,F.
     Software update: the ORCA program system, version 4.0
     WIRES Comput. Molec. Sci., 2018 8(1)1-6
     doi.org/10.1002/wcms.1327
  6. Neese,F.; Wennmohs,F.; Becker,U.; Riplinger,C.
     The ORCA quantum chemistry program package
     J. Chem. Phys., 2020 152 Art. No. L224108
     doi.org/10.1063/5.0004608

List of optional additional citations

  1. Neese,F.
     Approximate second-order SCF convergence for spin unrestricted wavefunctions
     Chem. Phys. Lett., 2000 325(1-3)93-98
     doi.org/10.1016/s0009-2614(00)00662-x

Timings for individual modules:

Sum of individual times          ...     9993.451 sec (= 166.558 min)
Startup calculation              ...       38.842 sec (=   0.647 min)   0.4 %
SCF iterations                   ...     1490.717 sec (=  24.845 min)  14.9 %
Property integrals               ...     2274.492 sec (=  37.908 min)  22.8 %
SCF Response                     ...     3252.491 sec (=  54.208 min)  32.5 %
Property calculations            ...     2266.170 sec (=  37.770 min)  22.7 %
SCF Gradient evaluation          ...      670.356 sec (=  11.173 min)   6.7 %
Geometry relaxation              ...        0.382 sec (=   0.006 min)   0.0 %
                             ****ORCA TERMINATED NORMALLY****
TOTAL RUN TIME: 0 days 2 hours 46 minutes 34 seconds 958 msec
