42
Coordinates from ORCA-job NMU-1 E -1032.800158749808
  C      -6.556900     -1.501750     -0.084475
  C      -6.558611     -2.659523     -1.067378
  C      -5.558198     -3.713399     -0.608906
  H      -6.294088     -2.292834     -2.062853
  H      -7.563868     -3.079265     -1.126801
  C      -4.204012     -3.101163     -0.337027
  H      -5.458499     -4.509354     -1.348843
  H      -5.934171     -4.183372      0.306645
  C      -4.099273     -1.719738      0.030256
  N      -5.218889     -0.933474      0.073890
  H      -6.943804     -1.834079      0.888443
  H      -7.209482     -0.701061     -0.434570
  C      -5.162650      0.411024      0.643572
  C      -3.867508      1.110765      0.270976
  H      -5.267134      0.363222      1.736056
  H      -6.020278      0.963878      0.259725
  C      -2.673014      0.282320      0.729894
  H      -3.844876      2.100375      0.729466
  H      -3.834010      1.249362     -0.812785
  C      -2.827044     -1.165885      0.330522
  H      -2.572281      0.353898      1.818438
  H      -1.749356      0.684275      0.312515
  C      -3.066357     -3.863932     -0.424061
  C      -1.721072     -1.993661      0.242088
  C      -1.791389     -3.341376     -0.138898
  O      -0.501252     -1.446111      0.550600
  C       0.690739     -2.143685      0.497355
  C      -0.590335     -4.082682     -0.199872
  C       0.629593     -3.537093      0.101052
  O       1.689980     -1.506828      0.781870
  C       1.879527     -4.317584      0.005077
  C       2.901327     -4.240108      0.956368
  C       2.080379     -5.198469     -1.065103
  N       3.161002     -5.965921     -1.215769
  C       4.118426     -5.880213     -0.286960
  C       4.030427     -5.030904      0.808720
  H       1.329792     -5.273296     -1.845142
  H       4.831159     -4.995625      1.535735
  H       4.988825     -6.511986     -0.427164
  H       2.806456     -3.576825      1.804109
  H      -3.146000     -4.905794     -0.713746
  H      -0.651962     -5.127480     -0.482559
42
Coordinates from ORCA-job NMU-1 E -1032.800242331301
  C      -6.549849     -1.504640     -0.080061
  C      -6.550416     -2.653915     -1.070838
  C      -5.552345     -3.709965     -0.617114
  H      -6.282275     -2.279813     -2.062457
  H      -7.555583     -3.072571     -1.135502
  C      -4.200066     -3.099019     -0.345438
  H      -5.452964     -4.503183     -1.359736
  H      -5.927135     -4.181259      0.297969
  C      -4.095629     -1.720803      0.026780
  N      -5.214063     -0.936892      0.077291
  H      -6.932388     -1.844795      0.891598
  H      -7.203722     -0.702211     -0.422898
  C      -5.157494      0.401248      0.656048
  C      -3.866706      1.103823      0.279081
  H      -5.254100      0.344310      1.748558
  H      -6.018522      0.954610      0.281363
  C      -2.670856      0.276378      0.731614
  H      -3.843560      2.092322      0.739454
  H      -3.837963      1.242710     -0.804657
  C      -2.825208     -1.167586      0.326301
  H      -2.568176      0.342388      1.820045
  H      -1.748486      0.680072      0.313443
  C      -3.063631     -3.860830     -0.436025
  C      -1.720184     -1.992767      0.233910
  C      -1.790310     -3.338600     -0.149886
  O      -0.502132     -1.443692      0.542594
  C       0.688844     -2.140886      0.486783
  C      -0.591084     -4.079419     -0.210313
  C       0.626273     -3.532770      0.091440
  O       1.689042     -1.506671      0.773110
  C       1.872559     -4.312621      0.001808
  C       2.898305     -4.215811      0.944962
  C       2.063186     -5.215773     -1.049942
  N       3.139749     -5.990082     -1.189885
  C       4.102981     -5.885593     -0.269081
  C       4.024352     -5.011675      0.807694
  H       1.305898     -5.306105     -1.821594
  H       4.829785     -4.962037      1.528380
  H       4.970953     -6.522321     -0.400392
  H       2.808894     -3.533384      1.777746
  H      -3.143074     -4.901572     -0.728600
  H      -0.651577     -5.123952     -0.493093
42
Coordinates from ORCA-job NMU-1 E -1032.800238056740
  C      -6.548252     -1.506401     -0.078470
  C      -6.547389     -2.651922     -1.073163
  C      -5.550289     -3.708828     -0.620486
  H      -6.275890     -2.273964     -2.062419
  H      -7.552456     -3.070204     -1.141938
  C      -4.198601     -3.098056     -0.348309
  H      -5.450556     -4.501323     -1.363794
  H      -5.925240     -4.180231      0.294472
  C      -4.094794     -1.720927      0.025889
  N      -5.213312     -0.938111      0.079186
  H      -6.929028     -1.850800      0.892449
  H      -7.203320     -0.703526     -0.417935
  C      -5.156417      0.397352      0.662805
  C      -3.868278      1.102143      0.282107
  H      -5.247440      0.335671      1.755601
  H      -6.019948      0.950832      0.294220
  C      -2.670725      0.275759      0.731004
  H      -3.844857      2.090798      0.742138
  H      -3.843196      1.239794     -0.801875
  C      -2.824868     -1.167200      0.324164
  H      -2.566156      0.339945      1.819368
  H      -1.749416      0.680361      0.311457
  C      -3.062166     -3.859244     -0.440066
  C      -1.719622     -1.991191      0.230323
  C      -1.789397     -3.336600     -0.153908
  O      -0.502273     -1.441074      0.538471
  C       0.688024     -2.138656      0.485120
  C      -0.590762     -4.077307     -0.213619
  C       0.626034     -3.530168      0.089001
  O       1.689456     -1.501098      0.759940
  C       1.871181     -4.310810      0.001428
  C       2.898715     -4.208831      0.941921
  C       2.057609     -5.222278     -1.043746
  N       3.132387     -5.999447     -1.180366
  C       4.097513     -5.889969     -0.262124
  C       4.022639     -5.008182      0.808363
  H       1.299501     -5.314944     -1.814189
  H       4.829599     -4.955244      1.527102
  H       4.963938     -6.529480     -0.390122
  H       2.811551     -3.520335      1.769492
  H      -3.141131     -4.899669     -0.733744
  H      -0.651049     -5.121985     -0.495292
42
Coordinates from ORCA-job NMU-1 E -1032.800243733425
  C      -6.548103     -1.507915     -0.075608
  C      -6.546814     -2.650125     -1.074113
  C      -5.549466     -3.707822     -0.623973
  H      -6.273870     -2.268481     -2.061588
  H      -7.551723     -3.068405     -1.145373
  C      -4.197828     -3.096977     -0.351955
  H      -5.449946     -4.499163     -1.368535
  H      -5.923719     -4.180365      0.290712
  C      -4.094532     -1.720739      0.024975
  N      -5.213532     -0.938891      0.081961
  H      -6.926941     -1.856315      0.894712
  H      -7.204587     -0.704642     -0.411426
  C      -5.156077      0.394310      0.670552
  C      -3.870361      1.101683      0.286480
  H      -5.241719      0.328079      1.763584
  H      -6.022029      0.948054      0.308129
  C      -2.670596      0.275921      0.730463
  H      -3.846525      2.090052      0.747127
  H      -3.849334      1.239626     -0.797570
  C      -2.824585     -1.166475      0.321718
  H      -2.563146      0.338100      1.818699
  H      -1.750742      0.681845      0.309022
  C      -3.061071     -3.857335     -0.446336
  C      -1.718806     -1.989337      0.224709
  C      -1.788318     -3.334228     -0.161124
  O      -0.501456     -1.438379      0.530815
  C       0.689046     -2.134706      0.473134
  C      -0.589966     -4.075080     -0.220534
  C       0.626920     -3.527680      0.082107
  O       1.690081     -1.498132      0.752248
  C       1.871081     -4.310332     -0.000179
  C       2.899383     -4.202327      0.938979
  C       2.055687     -5.230517     -1.038158
  N       3.128991     -6.010662     -1.168892
  C       4.094487     -5.895669     -0.251691
  C       4.021656     -5.005002      0.811474
  H       1.297855     -5.326895     -1.808355
  H       4.829116     -4.947908      1.529365
  H       4.959667     -6.537894     -0.374561
  H       2.813443     -3.506923      1.760686
  H      -3.139693     -4.897404     -0.741385
  H      -0.650608     -5.120295     -0.499834
42
Coordinates from ORCA-job NMU-1 E -1032.800250713356
  C      -6.548895     -1.507554     -0.076384
  C      -6.547343     -2.650115     -1.074768
  C      -5.550122     -3.707941     -0.623993
  H      -6.273827     -2.268637     -2.062158
  H      -7.552202     -3.068329     -1.146497
  C      -4.198258     -3.097138     -0.351508
  H      -5.450448     -4.499515     -1.368287
  H      -5.924929     -4.180348      0.290535
  C      -4.094954     -1.720635      0.025237
  N      -5.214130     -0.938549      0.081880
  H      -6.928326     -1.855841      0.893716
  H      -7.205198     -0.704280     -0.412530
  C      -5.156506      0.394663      0.671026
  C      -3.870884      1.102373      0.286507
  H      -5.241433      0.328074      1.764065
  H      -6.022755      0.948470      0.309448
  C      -2.670695      0.276678      0.729978
  H      -3.846943      2.090788      0.746983
  H      -3.850475      1.240372     -0.797559
  C      -2.824819     -1.166278      0.322016
  H      -2.562481      0.339384      1.818106
  H      -1.751120      0.682474      0.307775
  C      -3.061387     -3.857575     -0.445627
  C      -1.718929     -1.989402      0.225280
  C      -1.788474     -3.334491     -0.160225
  O      -0.501326     -1.438687      0.531295
  C       0.689202     -2.135129      0.473947
  C      -0.589992     -4.075581     -0.219201
  C       0.627235     -3.528264      0.083149
  O       1.690393     -1.498155      0.751725
  C       1.871682     -4.310938      0.000269
  C       2.900349     -4.203280      0.939272
  C       2.056922     -5.230047     -1.038746
  N       3.130156     -6.010283     -1.169705
  C       4.095604     -5.895962     -0.252327
  C       4.022817     -5.005640      0.811124
  H       1.298775     -5.326827     -1.808628
  H       4.830482     -4.948656      1.528799
  H       4.960845     -6.538032     -0.375576
  H       2.814522     -3.508047      1.761318
  H      -3.139984     -4.897697     -0.740545
  H      -0.650827     -5.120773     -0.498728
