42
Coordinates from ORCA-job NMU-1 E -1032.800250713356
  C          -6.54889510268674     -1.50755402022692     -0.07638434455649
  C          -6.54734348345510     -2.65011487914670     -1.07476770325782
  C          -5.55012212088742     -3.70794054059049     -0.62399324927155
  H          -6.27382688600519     -2.26863716675012     -2.06215804764834
  H          -7.55220172718824     -3.06832932027792     -1.14649650003442
  C          -4.19825821743144     -3.09713816125128     -0.35150773677324
  H          -5.45044817765085     -4.49951539475842     -1.36828699041643
  H          -5.92492870032332     -4.18034783474317      0.29053536742415
  C          -4.09495399482279     -1.72063515775536      0.02523696966271
  N          -5.21413046240801     -0.93854937214814      0.08188015593886
  H          -6.92832578048626     -1.85584095945647      0.89371641996651
  H          -7.20519830928375     -0.70428047824075     -0.41253037842956
  C          -5.15650611823475      0.39466295531906      0.67102565601704
  C          -3.87088398021185      1.10237263005175      0.28650725944205
  H          -5.24143288946792      0.32807381346791      1.76406458493488
  H          -6.02275524747994      0.94847019986601      0.30944805361580
  C          -2.67069493958191      0.27667840613006      0.72997782556978
  H          -3.84694322126867      2.09078780241165      0.74698300105321
  H          -3.85047492292768      1.24037244628746     -0.79755902016960
  C          -2.82481931750715     -1.16627751658947      0.32201586785116
  H          -2.56248075442934      0.33938375061727      1.81810556354307
  H          -1.75111952250712      0.68247434172781      0.30777508431920
  C          -3.06138698920523     -3.85757488483586     -0.44562737619954
  C          -1.71892897061153     -1.98940218742328      0.22527987793550
  C          -1.78847382586014     -3.33449059750667     -0.16022480854894
  O          -0.50132609168574     -1.43868709416361      0.53129549669346
  C           0.68920155199012     -2.13512875196584      0.47394721175819
  C          -0.58999225204905     -4.07558147825656     -0.21920053878048
  C           0.62723528313724     -3.52826357187641      0.08314867510267
  O           1.69039295120845     -1.49815490485710      0.75172531312889
  C           1.87168150069185     -4.31093772822839      0.00026910055327
  C           2.90034861975439     -4.20327995460797      0.93927241481536
  C           2.05692192289546     -5.23004705552740     -1.03874590006871
  N           3.13015638780345     -6.01028336110231     -1.16970479849278
  C           4.09560445536330     -5.89596220029597     -0.25232651229577
  C           4.02281687213007     -5.00564044443231      0.81112379451603
  H           1.29877493710478     -5.32682712517061     -1.80862834276400
  H           4.83048188885765     -4.94865640104196      1.52879949019875
  H           4.96084502684274     -6.53803158852552     -0.37557583826940
  H           2.81452163579815     -3.50804664332369      1.76131830679643
  H          -3.13998419750478     -4.89769670621284     -0.74054543919667
  H          -0.65082683041568     -5.12077286458936     -0.49872796566326
