! B3LYP/G OPT FREQ 6-311G* CPCM(Water)

%tddft
    NRoots 3
    IRoot 1
end 

* xyz 0 1 
C  -3.32365374716909123265 -1.11365992868202678956 -0.29579280493737891700
C  -2.73100605397555717957 -2.04803208649721302237 -1.14192066097935374103
C  -1.39731054639361640390 -1.94640037175689850635 -1.44465202399028180835
C  -2.56997069022985957787 -0.10897358942557100470 0.27217364817070549554
C  -1.18385026394702075336 -0.01369459150276597370 0.03135928380969121854
O  -3.23151576501365145333 0.77962196368617053821 1.10385307299340795772
C  -0.60780231915016735833 -0.93416149823513205952 -0.87771888863533209513
C  0.77094100825023992307 -0.81866148882811917709 -1.22130318539036464287
C  1.54747578004928887374 0.15890784721389228373 -0.70298254105704260919
C  -0.33443610725806482975 0.96881449863902591169 0.65397622581930980878
C  1.02005613814571538533 1.07153865898840350290 0.25183299975767958756
N  -0.83444221810779872772 1.75480015841730363491 1.61946968802906043905
C  -0.07265645611633742007 2.67611154763844805160 2.15809700192975650879
C  1.25626987849212912174 2.89691865606340748229 1.79141633681890244389
C  1.80701258760537730730 2.07419946950326838930 0.83968346597750309623
C  -3.14281386458764355751 2.10409984826589102624 0.80321945194364086085
O  -2.79282218350195154954 2.51675446700074711970 -0.29596640711595123552
N  -3.60647735529621726869 2.86479640803472435096 1.79689761872072129023
C  -3.93132305291366712652 2.29169465154733886791 3.08687706558590502226
C  -3.61144698060591640143 4.30427245089342136453 1.67225927788310380073
H  -2.91051400839943941179 4.74753841112418228931 2.38073272599095586699
H  -4.61423606336616209944 4.68738022853357616526 1.86073792598428067180
H  -3.30758757323073382395 4.56220640005665689642 0.65964840310110450794
H  -3.04841551410247291187 1.82142023996747304260 3.52233935184176782940
H  -4.70792474207601419067 1.53527496523847251098 2.97839099361839876323
H  -4.28507529862943492560 3.08707565925087612513 3.73476590360136029290
H  -0.93466644080681815510 -2.64181090566567533529 -2.12755461965540737523
H  -4.37933576912085520405 -1.15237476641601932492 -0.07785697747104547428
H  -3.33482816550597771510 -2.83064821490685947225 -1.57269036677572549010
H  1.17466383604368007632 -1.52987969002031021226 -1.92555225416674380412
H  2.58456507065892449049 0.26144821638791604368 -0.98533307790676449844
H  -0.54354017163546941571 3.26927379146543906074 2.93036199153904997061
H  1.82638524778605515486 3.68265057824583053048 2.25950791868594258460
H  2.83844181143285467783 2.17932801763253669591 0.53610345059824060510
*
