! B3LYP/G OPT FREQ 6-311G* CPCM(Water)

%tddft
    NRoots 3
    IRoot 1
end 

* xyz 1 1 
C  -3.50826778365067415422 -0.55810834317446533781 1.87638784590087581705
C  -3.49063237894823075180 -0.65293053696974578948 0.52022502695974570663
C  -3.91948596796205261938 -1.54058587734291552174 1.50758395609179163266
C  -3.19673896406305102502 -1.70388939707651654309 2.66318593950833903961
C  -2.39075009019042417080 0.14741968918050640802 0.73569712579865631508
C  -1.69208390187366797264 0.08163511032441794768 1.96707290942992818472
O  -1.80280357080867048580 0.91648437334767751672 -0.23875249998904246596
C  -2.05267077026412625429 -0.92958324285944438081 2.89689548755871317809
C  -1.20818795043700055736 -1.18828865675838346583 4.01606544513876428937
C  -0.02185336612313615312 -0.55310748607708748459 4.16062950886842397580
C  -0.58015041237837139398 0.91492055053701659695 2.27815809178469086405
C  0.33468636174184962506 0.51566273303763865421 3.28981984323289378125
N  -0.36749437196625112101 2.10244016910152931032 1.64862387033669133274
C  0.80621350365110244773 2.74054836535245893714 1.75472810836634041110
C  1.81191735721519253666 2.27897168912703307342 2.57671775741376229973
C  1.54215356039266127119 1.21156378133417463872 3.41479904563331437828
C  -2.47852545685979031020 1.32578531718601499989 -1.36762048415985315586
O  -3.68864456183495370567 1.47867655296436928403 -1.40034355507004404373
N  -1.64364614279427434518 1.56771066064680231200 -2.37326803932058760793
C  -2.15927020744288977738 2.02891724525789207689 -3.64398466061278458739
C  -0.21405234556317553896 1.34201927111064822640 -2.29066535871520082779
H  0.01734165262692943799 0.28555319696725200984 -2.43833755516969397092
H  0.16110185609637617254 1.66052511885204423514 -1.32189820205907437867
H  0.26546886077763209855 1.92346262672329970655 -3.07283421818695856587
H  -3.24227209586382247863 2.11092180084227321046 -3.57884858222481128109
H  -1.89961893739804565939 1.31746066812184148276 -4.42811798248447541226
H  -1.73710985777264803609 3.00388528738464444245 -3.88586949722328700574
H  -3.48803573277338685443 -2.44424035144759166371 3.39066810833955800675
H  -4.02324857532774515789 -0.59211953916906545636 -0.41521031830855181788
H  -4.80238155748538364520 -2.13210589039714637494 1.32534321804004107115
H  -1.51404150482667243516 -1.95617557220452709110 4.70865062880530160783
H  0.66450893353850282175 -0.81836378374369078692 4.94813135979689278088
H  0.89643805732636994144 3.65520547897022929362 1.18809287976180399937
H  2.75630412128803570226 2.79570844190231904136 2.61128274519938674558
H  2.25000877391811293649 0.90817302078793082920 4.17074707044500314623
P  -1.72086238572946004233 3.14406850597768006139 1.18971996773987154228
O  -3.04401357392873528340 2.60654556046080365661 1.51078117243677612080
O  -1.27042648431749016780 3.52447270180366434289 -0.26170369766022516522
O  -1.37274985255101467096 4.45485444263088758987 2.01685325256687564277
C  -1.57532817654119727813 4.79181387717890761024 -0.87226401246800144840
C  -2.01477364852230289571 4.71700459762630153193 3.26886640690181806690
C  -3.06628885398893480385 5.05478232379286751552 -0.91741625338518262289
H  -1.15748720517566772159 4.70963684825946238277 -1.87670250833278062785
H  -1.06512766032144901018 5.58223473854209917278 -0.31756994348839184816
H  -3.46203523852013539397 5.14732800900629960950 0.09344018496651895767
H  -3.58544951654321675250 4.23066634533089747094 -1.40436627310496531251
H  -3.26525301705675463637 5.97231112078116943565 -1.46271246417201572498
C  -1.39373905766308059384 3.91218102262185540852 4.39449864926647038033
H  -3.07954071737906698303 4.48307431692266256107 3.17510557684049521399
H  -1.88792606014931374503 5.78910009025112426428 3.42869868536205268938
H  -1.83338545978716349616 4.22111924900953727757 5.33813277733421998050
H  -0.32058308039379479482 4.07957518650953243622 4.43307378854870393070
H  -1.59378431931126018917 2.85203025375277752218 4.24904750726802937777
*
