! CAM-B3LYP Def2-TZVP(-f) ESD(FLUOR) CPCM(Water)
%tddft
  nroots 3
  iroot 1
end

%esd
  GSHESSIAN "hbq-gs.hess"
  ESHESSIAN "hbq-es.hess"
  DOHT TRUE
  LINES VOIGT
  LINEW 50
  INLINEW 200
  UNIT NM
end

%output
  print[p_mos] true
  print[p_basis] 5
end

* xyz 0 1
  C          -3.35017464754711     -0.80213992305736     -0.32803421083526
  C          -2.89152341797807     -1.71974270939105     -1.27226933302576
  C          -1.56331351683633     -1.74234853636092     -1.59735017230993
  C          -2.48527627997504      0.07591200336927      0.26965276613119
  C          -1.10560733752797      0.08870158527313     -0.03348171186040
  O          -3.03439367617185      0.87905787730875      1.25628337748998
  C          -0.66055059388475     -0.85469853538599     -0.99043514721311
  C           0.72506723908047     -0.92161781658314     -1.34709689872512
  C           1.63203897588698     -0.10449216059508     -0.78647780184479
  C          -0.12254372359919      0.97975638558366      0.56350532321088
  C           1.23024790424968      0.86507104779952      0.18201935444951
  N          -0.51210181775661      1.90124548030219      1.46543118547393
  C           0.38658014717382      2.69658419001754      2.00145215558313
  C           1.74724219625359      2.65051283932116      1.69110541052701
  C           2.16368771659681      1.72743509047065      0.77277275176859
  C          -3.30758771000425      2.17302177528575      0.93846917500569
  O          -3.20385100329067      2.59807749814727     -0.19796531170104
  N          -3.72356792872568      2.87382181500466      2.00202141500857
  C          -3.86115378532097      2.31676207147080      3.33566853157321
  C          -4.20582112296206      4.22944358279272      1.82331738934003
  H          -5.27389359726112      4.28434067604370      2.04495132831616
  H          -4.03676779653434      4.54390509088631      0.79999191584272
  H          -3.67649501237917      4.90110244400334      2.50018764154721
  H          -3.23639904358206      1.43938846376227      3.44975114222591
  H          -4.89991548001185      2.04840047427531      3.54235143096281
  H          -3.54844598418130      3.06844782871255      4.05987218347849
  H          -1.18497840481890     -2.44895644523923     -2.32447702839955
  H          -4.39394676614045     -0.76789147044586     -0.04715626397636
  H          -3.58604776308459     -2.40611795914995     -1.73744167048972
  H           1.02273239450637     -1.65731937415372     -2.08311565776981
  H           2.67899983828851     -0.16144511463474     -1.05611255443703
  H           0.02124059717078      3.42201925770153      2.72081958329578
  H           2.43858198034957      3.33208097720563      2.16649697535116
  H           3.20608741530955      1.64952158298321      0.48967272032484
*
